13
Properties=species:S:1:pos:R:3 pbc="F F F"
Co      -0.00085815      -0.00052192       0.00017115
N       -0.44593515       1.52078908       1.51999915
N       -0.68674115       2.28363208       2.28123515
N        2.12343585       0.36851908       0.36979415
N        3.19812685       0.54771008       0.54954615
N        0.44765685      -1.52108392      -1.51974185
N        0.68893085      -2.28336592      -2.28138685
N       -2.12451915      -0.36776092      -0.36935785
N       -3.19928515      -0.54713692      -0.54848485
N       -0.00233715      -1.56592992       1.56641315
N       -0.00315815      -2.34633592       2.34777215
N        0.00196585       1.56537608      -1.56746485
N        0.00271785       2.34610908      -2.34849485
