20
Properties=species:S:1:pos:R:3 03/24/2023=T 16:57,=T XYZ=T structure=T generated=T by=T mol3D=T Class,=T molSimplify=T pbc="F F F"
Cr      -0.16476770       0.15743300      -1.01006740
O       -0.36259770       2.19780600      -0.76342340
H       -1.16100370       2.47530200      -0.27867140
H       -0.51451270       2.43324400      -1.71239240
O        1.85397630       0.37468500      -1.38452240
H        1.80720230       0.53297700      -2.35953740
H        2.27390930       1.16017900      -0.98937240
O        0.02806630      -1.86426600      -1.36386440
H        0.91159130      -2.22984600      -1.17416440
H       -0.06734170      -1.86161700      -2.34741040
O       -2.19814970      -0.05657800      -0.73970340
H       -2.48143270      -0.92777800      -0.40701940
H       -2.48138470      -0.01264500      -1.68543140
N        0.18657030      -0.16583500       1.15655660
C        0.36560430      -0.33263900       2.28928060
C        0.58948430      -0.54335900       3.71292560
H        0.43539130      -1.59842000       3.96093060
H        1.61400430      -0.26005000       3.97443760
H       -0.10992170       0.06668400       4.29350260
S       -0.52468770       0.45472300      -3.17205340
