17
gdb 127458	3.50044	1.13723	0.87155	1.1983	73.32	-0.2079	0.0102	0.2181	1304.7759	0.136588	-451.331949	-451.32265	-451.321705	-451.367139	32.355	
C	 0.2173303237	 1.392802655	-0.0486872004	-0.325962
N	 0.1333381886	-0.0446719463	-0.0130510189	-0.045399
N	 0.1644488951	-0.8077420751	-1.1653930209	-0.304924
C	 0.0698892069	-2.0169575683	-0.7489665273	 0.39573
C	 0.0527361211	-3.2668945196	-1.576159341	-0.278997
N	 0.1555606635	-3.0592554918	-3.0120175713	-0.48602
O	-0.0234192032	-2.1271012103	 0.6114335395	-0.234397
C	 0.0179736346	-0.8251475702	 1.1087734843	 0.44687
N	-0.0380818328	-0.450639325	 2.3163665089	-0.614716
H	 1.1597042819	 1.7172443428	-0.5013990587	 0.13834
H	-0.6161450352	 1.8179885317	-0.6168131829	 0.138375
H	 0.1699412534	 1.7400462501	 0.9841740065	 0.177142
H	 0.8722612284	-3.9158607575	-1.2419575461	 0.140889
H	-0.8691517536	-3.8187773525	-1.3525386307	 0.140886
H	-0.6012297059	-2.454059818	-3.3180463131	 0.241231
H	 1.007454703	-2.5441110958	-3.2158495997	 0.241245
H	-0.1228350395	-1.2404714791	 2.9482891116	 0.229706
