11
gdb 4628	6.80871	1.41319	1.17029	3.6122	64.28	-0.2259	-0.0368	0.1891	928.1399	0.071482	-397.379616	-397.373048	-397.372104	-397.410385	24.437	
N	-0.1436411188	 1.267686996	 0.010971215	-0.578744
C	-0.027414722	 0.0202261673	 0.0034240712	 0.498872
O	 1.1369168681	-0.7286511312	-0.0071495706	-0.207408
C	 0.7627872393	-2.0474192242	-0.012293041	-0.145961
C	-0.572719325	-2.1322886372	-0.0052707554	 0.189489
O	-1.0861352466	-0.8361695157	 0.0047017378	-0.225741
C	-1.4543972638	-3.2212024663	-0.006275083	 0.247252
C	-2.2132278362	-4.1554184377	-0.0071257273	-0.402251
H	 0.7675946075	 1.7176353527	 0.0083761567	 0.240958
H	 1.5388457724	-2.7915644904	-0.020708641	 0.174196
H	-2.8823874349	-4.9805324733	-0.0078863224	 0.209338
