11
gdb 21464	9.70052	0.96401	0.87687	0.8565	63.65	-0.2604	-0.0806	0.1797	1177.0628	0.070114	-430.719375	-430.711636	-430.710692	-430.752268	25.699	
N	-0.3697807159	 1.4121364263	 0.0095628897	-0.424319
C	-0.0181974324	 0.2046754693	 0.0017620613	 0.120323
O	-1.004991156	-0.7484149226	 0.0042452267	-0.215972
C	-0.6145022725	-2.0701636429	-0.0039526498	 0.480497
C	-1.8049389008	-2.8942355102	 0.0002626765	-0.258981
N	-1.6453052614	-4.191711295	-0.0058495608	 0.307256
N	-1.4897758179	-5.3090833827	-0.0113390795	-0.190631
O	 0.5294806575	-2.4513988822	-0.0127569995	-0.384205
H	 0.4552814242	 2.0102148027	 0.0066834409	 0.240502
H	 0.9841630732	-0.223257107	-0.0067886027	 0.146553
H	-2.8150779581	-2.5170052858	 0.0080792472	 0.178977
