39
000212
C 6.08818872642221 2.0572867548122185 0.5552862946480415
C 5.456558270740961 2.0504752662164547 -0.8317932025896524
O 4.218845197981492 1.3427543559552797 -0.815497061976842
C 4.131571501068623 -0.05276101933564164 -0.7651158747207654
O 5.166693187345514 -0.7693154426502841 -0.8393497765178318
C 2.7916821469787583 -0.7016175671280629 -0.6678059583906802
F 2.153582985248286 -1.0809386033578396 -1.8380211398224333
C 2.554554865017661 -1.5727087307974899 0.5602126563728255
C 1.4178223447845055 -2.5990314532011776 0.49882142666824947
C 0.17858353149068448 -1.7875558125693674 0.3926494469316707
C 0.4389962728356068 -0.4920493431185683 0.3500431558610659
C -0.5917057459364881 0.5468881242482595 0.2102056954069774
O -0.2516943518100576 1.7606448206218577 0.15919892604899336
O -1.9402649516282073 0.18490643768417944 0.13155598537338511
C -2.9860418155644206 1.1401544388922646 -0.0070911260085529835
C -4.303181546862196 0.4244881301685411 -0.06835407198018528
C -4.800512408054354 -0.0376292792128536 -1.2981217895525095
C -6.00987472851972 -0.7379625326117416 -1.3495071579279694
C -6.723436953426273 -0.9913713354505566 -0.1747935854294613
C -6.226047206898368 -0.5494346084138649 1.0541231636511756
C -5.01660195839962 0.15076173238614632 1.1103839271163123
C 1.8958720921871794 -0.1937647587580343 0.4550788798611031
H 7.0274264695159365 2.6492066177607168 0.5354019826277532
H 6.325262692674234 1.0222716549081032 0.878754641402328
H 5.388992547778282 2.5160676127362405 1.285666453302611
H 5.260350532494699 3.099534295907597 -1.138857999014779
H 6.1524592383536305 1.5985577024701327 -1.5716900997698668
H 3.329145530267761 -1.6236169367118796 1.356352552958753
H 1.395233437170338 -3.2032321316890213 1.4296715424980824
H 1.5293799237523196 -3.261599705078704 -0.38528369218868547
H -0.8152748416686281 -2.2125412542440586 0.32994039668016967
H -2.8312345712076628 1.7338162314289016 -0.9345699600443391
H -2.9701508102427354 1.8412744056547385 0.8559650792227496
H -4.252352778771681 0.14347554436934715 -2.2145361921375715
H -6.392053211448974 -1.0874074793952215 -2.299926920569107
H -7.658670337648956 -1.5345612577717802 -0.21625778851721725
H -6.77567861217537 -0.7528546124486376 1.9638219856366186
H -4.63714440232779 0.47864654427019176 2.0703334162174616
H 2.280719738482824 0.500743193453616 1.2331057886721235
