29
001121
C 4.633660539430648 -1.2878966615825018 -0.7019108071104205
O 3.6090154833785646 -0.5179048205431365 -1.3220922398371522
C 2.393233725908425 -0.17865418108888176 -0.7100489951932809
C 2.0695555656043862 -0.5788220954281568 0.5998883021997833
C 0.8441066155937396 -0.21543135981394745 1.1658567615338333
C -0.07507778817959557 0.5598717937347986 0.44072561274103106
C -1.4147287813577507 0.9123322740946612 1.06137359368969
N -1.8348958592083162 2.2488217285672394 0.6581664558966793
C -3.096869982497342 2.127779889957503 0.04595526125332306
O -3.73685950612096 3.1025948616679666 -0.4267557136327427
O -3.5520047216217403 0.830586869686174 0.015013325448924133
C -2.60953069029734 -0.025142370888449304 0.6556159585900744
C -2.2625688952481537 -1.2045443381735654 -0.26785135168455976
O -3.407032741096492 -1.9720571528029152 -0.5258001135751074
C 0.24731979953990085 0.9474613821942807 -0.8726975098870932
C 1.4726102969136265 0.5833916875941711 -1.4372405798865726
H 5.000502689630182 -0.7712543750539241 0.21009026768704844
H 4.248685248668856 -2.29647137774167 -0.4415170478349445
H 5.479805462833997 -1.402559468485751 -1.409894856834781
H 2.7554177107774134 -1.1736006754938004 1.187455774381982
H 0.6102344393306941 -0.5434388166680444 2.171182839163327
H -1.317465557990608 0.9083809180086386 2.1700593849680065
H -1.3099512931908137 3.137885766563351 0.8158332231902851
H -3.0746217371051476 -0.4269934334886795 1.5830089369765585
H -1.8764107708261057 -0.8234289309767987 -1.2361423965342933
H -1.4750071386051584 -1.8401235009192702 0.19712890697301996
H -3.575180868763591 -2.5151494141900703 0.28822222586776813
H -0.4524577789368075 1.5231957582221827 -1.465069578967038
H 1.7065165334354921 0.8911700430485954 -2.4485556395833488
