59
001268
C 7.1360909403655 -1.1730092955362714 0.1765711162900868
C 5.748280485801498 -0.6646346210058033 -0.07923816664992617
C 4.634946578737045 -1.4260221915105238 0.3072991574155913
C 3.3412386483040803 -0.9705257202415957 0.037309759085684194
C 3.1440300581592826 0.242920096523569 -0.6406097641098343
C 1.747481002808621 0.7445015158202164 -0.9037027027793044
C 1.1727259455265604 1.4668239091738124 0.32904644479899703
N 1.9823579202952182 2.6467233598398834 0.6450930597625455
B -0.3734769175849337 1.8844947079730006 0.12590097623229476
O -0.9696133458278251 1.7666843945576536 -1.1993403174507864
C -2.151514024282064 1.0543651233379907 -0.9552397279613737
C -2.0675679036288304 -0.3981083323829822 -1.582447108957499
C -2.397298148928478 -1.529956379985464 -0.5590082309399309
C -1.5605030556473432 -1.2393717329898244 0.687202478390942
C -2.726215690525816 -0.34848887360882347 1.162267408991587
C -3.665567951482205 -1.1996525996634892 0.2554091336257263
C -4.860457751387299 -0.5684602324103739 -0.5042013011170214
C -4.20886934861185 -2.4413152222243903 1.0144040530735117
C -2.4382551150017666 1.0907343328844104 0.6009076611170538
C -3.584566241308705 2.060657227743719 0.9562164664378823
O -1.2914170608529512 1.609717838833119 1.2289052221259371
C 4.258695244880931 1.0007316775967285 -1.033295963118268
C 5.5523663782798085 0.5447532973190536 -0.7633501283799171
O 0.8845009127854554 -1.3568197780144107 -0.5862665519180696
C 0.49334179239850057 -0.2698759972670156 -0.08273669792412698
O 1.4238940824739879 0.6428896189711674 0.40482821550844883
C -0.9631402577541263 0.06371837748268329 -0.06315255538183943
F -1.3318192135609301 0.5800561201187849 -1.2908935527504135
F -1.2205249402545213 1.0010655204386816 0.9205069036109242
F -1.7052175805738397 -1.0746594187040883 0.19481642918946132
H 7.850336563137009 -0.3287954684863277 0.2835678990732444
H 7.456631645967205 -1.813141028417718 -0.6718017372673534
H 7.167368034961578 -1.769644419209769 1.1132673767271213
H 4.768232834339726 -2.370559936748253 0.8204277443405557
H 2.4922584560062715 -1.5637986030091457 0.35477153374483245
H 1.1073340617423764 -0.12364024717085587 -1.1671571982824884
H 1.7453184597462188 1.428096192055375 -1.7818276572432807
H 1.2160029572695867 0.7696518078821998 1.1949681434041814
H 1.873766984624397 3.3619731999660747 -0.11182570967071563
H 1.636373713975405 3.0708873779913612 1.5371732018329807
H -2.949347844084649 1.6079718996565042 -1.4953600760295978
H -2.760638714916625 -0.47705022573076405 -2.447248760699363
H -1.051350298908125 -0.5793248848384808 -1.9911028226652019
H -2.317148184715318 -2.566600493709681 -0.9525171327709999
H -0.5775397226222933 -0.769534565535136 0.4998337425476663
H -1.4190182965250664 -2.1379697359831664 1.3256758368224337
H -2.9227634860234653 -0.40034119055924855 2.2558725901091528
H -5.62261257438255 -0.21666978150481886 0.2228849020440784
H -5.337816921976289 -1.3400756855081841 -1.1452335776709308
H -4.616573722664401 0.26312454184536666 -1.1789557405616826
H -4.630339190545961 -3.1751806712330626 0.2944556404751994
H -3.4378484859880336 -2.967920615290763 1.6116070049061093
H -5.013712333317611 -2.132637484432243 1.7153122969018995
H -4.526716147880859 1.8426491963549183 0.4261859871842058
H -3.7831651427984267 2.0319011359110095 2.048889377111598
H -3.293402570868765 3.099302274641223 0.6889538226704492
H 4.126233214079485 1.9436137822167079 -1.5494442965162265
H 6.400658701257403 1.136492674257613 -1.0847810546528847
H 2.41555256750877 0.4372842315198458 0.38020694791665294
