31
002270
C -1.8311909477976744 -1.8685021643011344 0.06147174657451185
C -1.1073509665841237 -0.7584679150423822 0.8489152706168069
C -1.8234977835308388 0.5992376112554811 0.7039938770341182
C -1.5018127103204215 1.299079443276882 -0.6163886415849209
C 0.0065218247566959505 1.503309539402863 -0.7839965512714074
C 0.8199573066412492 0.1811339793933192 -0.7172721253652485
C 2.3268597745196544 0.5492894317894731 -0.7218448246897586
C 0.5866312796737582 -0.6436654710588682 -2.010169615500959
C 0.4348249042411777 -0.6748048592187535 0.5623524677861389
C 1.18743114356645 -0.2635766236882537 1.859332790644654
O 0.9258284906657296 1.0688422558903727 2.20189092867751
H -1.212050010666773 -2.7881752121061814 0.0035136283251678943
H -2.7756760854739246 -2.134624492880406 0.5832198207223614
H -2.1156879261932118 -1.5518532878771547 -0.9582399613156984
H -1.240192103637424 -1.0597596848314712 1.9124986098418344
H -2.9237481637571907 0.4570587552746914 0.7813033240828569
H -1.5328855838390754 1.2647764882603014 1.5447492097047706
H -1.9972844164420267 2.2940899143184708 -0.6197778397324039
H -1.920984341857805 0.732205761922465 -1.472310039736283
H 0.1877996071158939 2.0108628456790627 -1.7573047821137446
H 0.3514647755566126 2.207327791050936 0.0037354748895606403
H 2.608626974505229 1.0586374934249914 -1.6692379076099633
H 2.953227545540392 -0.36359190531609786 -0.6226041198476776
H 2.581666322732638 1.250231682693741 0.10055281428559341
H 0.9321315871598946 -0.0815443897080385 -2.9049543349846663
H 1.1500743668699374 -1.600823599597838 -1.9723947242234858
H -0.47439041763703205 -0.879016488998401 -2.1843166804296454
H 0.7923675918966774 -1.7126797649663381 0.3784535748582191
H 0.8818699078552208 -0.92796427631492 2.698814728633085
H 2.2821626170331957 -0.41757972379089053 1.739681244108492
H 1.4473054374071168 1.250546866064077 3.0263326376201807
