45
002352
C 3.938434489452047 -2.174268846254376 0.49210991398305476
C 2.452428230380047 -2.0389912124100986 0.12123374780481824
N 2.131669349836813 -0.8557805956164719 -0.7110522193783316
C 2.740331323244873 -0.8910622986008272 -2.051011236356437
C 3.6946080963305765 0.2915198638993806 -2.177163870379142
C 3.7232209687637554 0.9511383319892261 -0.8131377470896672
C 2.4839062447989444 0.4320736900948713 -0.08920514115408049
C 1.3012940000013467 1.405789444483923 -0.2397898454970721
N 0.11420787169678424 0.8915849525437227 0.442254824402386
C -1.1770535240596651 1.4848977327244655 0.25277877265886634
O -1.2702338550212176 2.6263988773719427 -0.274615731570462
C -2.4015098314003795 0.7632631093715538 0.6747443457481553
C -2.52929341480591 -0.620591972596932 0.4173890216495171
O -1.5127920627756009 -1.2808872225005559 -0.2947466980150617
C -1.4966480887530405 -2.673990630335396 -0.5866492566382977
C -3.677522939093479 -1.3023697182385634 0.8597486469626816
C -4.684886923956807 -0.622909100169463 1.5419287812284934
C -4.57566163326639 0.7469550541144001 1.7823894755488865
Br -5.950316799781617 1.6049647840027246 2.803757389011638
C -3.444975180314062 1.4524215645496394 1.3331113539079094
O -3.331273813122515 2.8251676783673307 1.5751092132711435
C -4.055714298336565 3.784870020674229 0.812793601079468
H 4.253501651953989 -1.3659925565553914 1.1825620301948
H 4.094673662185953 -3.1414708589907088 1.014330077488467
H 4.587899806147837 -2.1612773643578524 -0.4062063987535687
H 1.8528903928052793 -1.9988723903566747 1.0563676471425978
H 2.1314776138305587 -2.958559539099434 -0.41521746564356504
H 3.269485816796802 -1.846675482916816 -2.2619968933139427
H 1.9316916526412073 -0.7966525824675885 -2.8074023374583272
H 3.312478988359587 1.0096004355533252 -2.9359589119232057
H 4.7117237198427055 -0.04416591360391762 -2.4757296911754665
H 3.743707835970876 2.06010182795132 -0.8974420922942132
H 4.635350040830969 0.6269570789681609 -0.2663026737578904
H 2.6979003804386474 0.3336911020223538 0.9994774070154642
H 1.5672155344120058 2.3934587150252313 0.1955451918087202
H 1.0725863525019965 1.546033086493002 -1.319646251370727
H 0.1952201234004145 0.054796527867036565 1.0638472907730125
H -2.3695010979624196 -2.942319602673665 -1.2182865675302634
H -0.567867749165487 -2.9152662586004254 -1.1432010156184618
H -1.5085948508062037 -3.2612577275789665 0.3556820572427383
H -3.8009242114959294 -2.3619355623271256 0.6829825338523088
H -5.553125704528599 -1.1672470601316325 1.8911147215814275
H -5.148128690191399 3.638657779697224 0.9313337885788028
H -3.7907715435663483 4.803057555922533 1.163869827622486
H -3.7911079342203844 3.695145282695284 -0.2616996156396606
