22
002933
C -2.6423927324619907 0.9418265889974905 -0.2928260922974006
C -1.3863440618164784 0.12473484081072855 -0.1701282550749159
C -1.3504559362158428 -0.9413030948421356 0.6458685075845498
C -0.07655082300732992 -1.7294330704317629 0.7804284057900063
C 1.1432847367684886 -0.7992820852501706 0.9393634614842543
C 1.0720522044138323 0.5022025892309662 0.07776235620477522
C 2.3850507715215112 0.7444405812376074 -0.6754438896654895
C -0.12253589250508623 0.5124962811521344 -0.9018730566313716
H -2.9213633086346302 1.3530410406902982 0.7002977856922582
H -3.4693820125128867 0.30286762496505376 -0.6682318038528736
H -2.5050130722669373 1.7871026896575006 -0.9988859626876319
H -2.221991494120762 -1.2232725921611294 1.230308599676777
H 0.05401099805381751 -2.345728442963265 -0.1355679006078442
H -0.14715200807647363 -2.4179743133243594 1.6494858479645533
H 2.055846014625478 -1.389401761860832 0.7018198072215528
H 1.2266794938492982 -0.5099893919205535 2.0101870865818823
H 0.9302267981758396 1.3609068443413155 0.7728849974235659
H 2.578144078769007 -0.07847792484472635 -1.3967905873439632
H 3.231050658274731 0.8000102866198834 0.04249389509813989
H 2.3373747829715548 1.7053902369857987 -1.2309854078279956
H -0.22345174014447894 1.520126717521052 -1.3601370792494407
H 0.052912544339337335 -0.2202836446108931 -1.7200307154833894
