23
003099
C -0.4584951069697163 -2.021440034546019 -0.1260732113535602
C -0.9056700201738876 -0.5812081578709817 -0.11571348411856894
C -2.2321246711036804 -0.29555023829777205 -0.48817910948015064
C -2.695568911507569 1.0190412521876595 -0.5272812786928942
C -1.8415045544589714 2.0699550953119332 -0.20476209096931838
C -0.5183448336021335 1.8121141394469111 0.1538525158879857
C -0.023171585787153424 0.49353244830432097 0.19805394954438357
C 1.4317855186311492 0.2888107644625116 0.6001075283292023
N 1.5159700538965237 -0.4582640795747543 1.857247902491599
C 2.204703375818735 -0.38706667699591346 -0.5016837252948136
O 2.7970297031722473 -1.4820958165158544 -0.29987353528677085
O 2.274132071013619 0.21257005295657203 -1.7555880484048558
H -1.3265332368625695 -2.714029325167494 -0.15742437801867953
H 0.11507405254348436 -2.2699216021118978 0.7878279759677891
H 0.16330478378438543 -2.2137550983562324 -1.0244739368663478
H -2.9146020692439922 -1.0945128218439644 -0.7512223087840748
H -3.719994414665028 1.2231635811816854 -0.8110952524283377
H -2.204410081576588 3.0892846502877314 -0.23552971041739504
H 0.12246702293710232 2.6508454102757013 0.396347472302647
H 1.921683320449727 1.276932553297054 0.7573397837658642
H 2.5146093722500793 -0.46856324819431877 2.1697646138860573
H 0.9911553494894958 0.07283625273309488 2.590293658357076
H 2.7885048619647383 -0.22267910096997348 -2.5119353304168364
