27
005020
C 3.7569632124604415 -0.6123593056080011 -0.17282259232037844
C 2.3358462386633976 -1.0528161755124692 -0.03997462652536653
O 2.0243936356331447 -2.2421611676311657 -0.3190391317971675
N 1.3457864518170353 -0.13696931781677918 0.4460407420171167
C -0.06325691089518759 -0.5242183788169659 0.6020436489888626
C -0.7785990491526226 -0.7770070346313572 -0.7129812434144128
C -2.2166859756488413 -1.0404864567610637 -0.22120948863508516
C -2.347216521887605 -0.0877301164859216 0.9838863449342533
C -0.9801080174153143 0.6234971032486822 1.001467097212882
C -0.9412536430325482 1.5774570216752442 -0.22138902913624994
O 0.13069536678588634 2.4791205077195135 -0.1402542875984228
C -0.7464045661620431 0.6036314535732749 -1.3982369168531457
H 4.329682094678262 -1.3293495111380318 -0.7986516913191605
H 3.7964694186170265 0.3887431107365023 -0.650998751123416
H 4.221656339174186 -0.5557407824007443 0.8333452873019567
H 1.671440542348677 0.7872289724425008 0.8075961824983993
H -0.12867772548120662 -1.3899607718921436 1.3042091137339729
H -0.3622329051261091 -1.5998799263556664 -1.3317525095146248
H -2.9747883317335226 -0.8207353179503277 -1.0045018388660178
H -2.3252720776202276 -2.0984087452023097 0.10497500814214603
H -3.194100726060552 0.6223143740836173 0.861133644787908
H -2.493687334584448 -0.6650049355648245 1.9236675951663897
H -0.7377381730679466 1.1019473772346118 1.9748516013409745
H -1.8952204872131735 2.1431682530403116 -0.33909644051690824
H -0.1100786497228356 3.1377821071046106 0.5621459592648267
H 0.23549597124607222 0.7590785533149486 -1.8981100038436656
H -1.553108176619947 0.7088591095939535 -2.1563436739256665
