30
005298
C 1.8281525448137783 -1.023965465831529 -1.3751318420215668
C 1.3724803494271118 -0.08564494708596618 -0.2285283308846419
C 1.887598110062185 -0.6762300666898001 1.1061179218329862
C 2.069276335830541 1.2876567749084171 -0.4435572249149008
O 1.590267514872448 1.915158840356154 -1.6029439849832516
C -0.20465393883162208 0.06467097982880547 -0.2432305892928248
C -0.9593007066405469 -1.2705098635409238 0.016499861951308214
C -2.4754766784222433 -1.0987910000011212 -0.16059932480547817
C -3.032178277111639 -0.046348177669117904 0.8003895909529234
C -2.239522225643433 1.2226457335503678 0.6872347078906323
O -2.8106055683951423 2.301750172900827 0.6427464638866801
C -0.7363042486356298 1.1595068110265503 0.7221746699327727
H 2.9353275988607574 -1.0191449964512325 -1.4749412519085707
H 1.533263910269759 -2.0765267234320017 -1.1866130423409844
H 1.3941789961440347 -0.7030101763236081 -2.3462853269073527
H 2.997425920533305 -0.7410764059028977 1.0972747819429558
H 1.599099092204217 -0.043232291573718336 1.9695289359328267
H 1.5038470505000123 -1.7038668666189172 1.272101902947855
H 1.9106314424703212 1.9497409166008774 0.43648023776394845
H 3.170821932793233 1.1467298903943057 -0.5340935460070044
H 2.0647787755444287 2.784658115962184 -1.6632559082579048
H -0.48759825928660055 0.39173469377199494 -1.2700926163694923
H -0.6320878513899475 -2.053234954493763 -0.6963380464558764
H -0.7639479473998808 -1.6345677178029583 1.0476854816529544
H -2.697639607593486 -0.8012444271516737 -1.2092856850603397
H -2.980562672799792 -2.0700813327937855 0.03119729273231087
H -4.101640836987161 0.14167166542513746 0.5616109798946484
H -2.9675142744983662 -0.42075438541576654 1.8447918815218134
H -0.4275731643260353 0.9468314896926412 1.7658477272199193
H -0.3405433163646027 2.1554737143605185 0.4332142821536529
