63
005409
C -0.8800064682970193 -3.584167696592608 -0.17026481212431985
C -0.7688489834215311 -2.379282834821118 0.7944891545835008
C -0.9539274214377887 -1.0199656331091835 0.0489852071331297
C -2.1212384423209323 -0.981360338947248 -0.9394419916029177
C -3.408667538766708 -1.4405141069085121 -0.5937004942807599
C -4.45596907588385 -1.385205528386774 -1.5184193596162008
C -4.23528148080036 -0.8652646656690192 -2.7947353941493294
C -2.9670639072847487 -0.39719600633201174 -3.1471253510650308
C -1.9163994920481033 -0.4532039794429871 -2.227780294452716
N -0.9653411145043832 0.1366615514874102 0.9968446267669369
C -2.2088003556429934 0.2446490730408347 1.7952770578769488
C -0.682770201720122 1.4200765922372718 0.30516722015141656
C -0.08145879315005025 2.4573096433470467 1.268690311884926
C 0.11959553515374657 3.778024033274164 0.5715409442937344
C 1.3886444954400785 4.151612452339393 0.09345031637777425
C 1.5602537704771589 5.3716264487946805 -0.5712655869153127
C 0.46839051767772527 6.225224200003711 -0.7657454314891128
C -0.7980958747723976 5.858632133244856 -0.29543459446334036
C -0.9731867997913034 4.6405238423299515 0.3705448926950667
N 0.5063732653438261 -2.31389605397025 1.581773983847859
C 0.24546493370567243 -2.34628568223788 3.0343699356253016
C 1.6156612384970173 -3.2321968513816373 1.2148588259571118
C 2.977179225763552 -2.5304509312788874 1.3590982556183953
C 3.2364979120024775 -1.6230750544520203 0.18389607487315973
C 3.894206966975722 -2.1188180833804324 -0.9579601646379156
C 4.050958138187034 -1.3090204375650218 -2.086612597474041
C 3.5451569502660036 -0.007961454265823545 -2.0891610936824865
C 2.8949155450937556 0.49325267884107915 -0.9576932577952337
C 2.7351444332210457 -0.3131001561307097 0.17328986945664854
H -0.5950934402446263 -4.525712402196785 0.345448150430183
H -0.2622553552270489 -3.433460553760991 -1.0785102269699542
H -1.9270559310603006 -3.7195232886035936 -0.503324487097741
H -1.6265568244011768 -2.5293362593204862 1.481056257558847
H -0.021379472425333196 -0.9502838408090097 -0.55651794944569
H -3.6070598391339925 -1.8521124550741939 0.3850127874124658
H -5.438803327347778 -1.7465101267719358 -1.2431136505192186
H -5.045670505438088 -0.8243653787604586 -3.5127608515666595
H -2.7965898777294047 0.006823961202151477 -4.136051976341898
H -0.9397091154718246 -0.08792113259798648 -2.5245408244964005
H -2.5122516509639072 -0.7250050425666309 2.23097938888367
H -2.0482985979583983 0.9127435772336466 2.665082649754436
H -3.053764722514584 0.6421929722517725 1.1916912200180416
H -1.6074157948304701 1.825878115543493 -0.1670572089099139
H 0.05599599735313474 1.2731749653023914 -0.513701552079003
H -0.7479600710324213 2.6272182533157493 2.1406019994145598
H 0.8850318288563892 2.072477139473518 1.664290135625973
H 2.245751166755387 3.5050281861326122 0.23971955749598425
H 2.5424432776740895 5.656379794644776 -0.932712914705997
H 0.604187057844589 7.169952792460565 -1.2805459656202656
H -1.6450496893204989 6.516134953887964 -0.44534379229254073
H -1.9616986258118392 4.368458993895134 0.7241792134633994
H 1.1857529596049794 -2.241007218659099 3.6140208349050393
H -0.24889778484897218 -3.30112508064753 3.3226718520394156
H -0.4069021612013343 -1.4932947506237584 3.32531271764436
H 1.5924684051092433 -4.1472188235657415 1.8527438162630585
H 1.5609047357646058 -3.582246694192792 0.1658369806836259
H 3.036744571007244 -1.954747161291147 2.305866726985618
H 3.774024479597774 -3.3060844929415083 1.4091852927927981
H 4.273047400340606 -3.1334740552773326 -0.9762503167588956
H 4.550655101497841 -1.6926346786940265 -2.968475916144572
H 3.657748559106404 0.6149848455863894 -2.9670318093980366
H 2.5019358815424746 1.499270706456641 -0.9648821998181244
H 2.2043343869447205 0.0787170248999233 1.0301858074002395
