44
005690
C -4.939541767749116 -2.8015549962117494 -1.460817286354309
O -3.5162668261633905 -2.773330494284886 -1.4923566968819912
C -2.7304667043727857 -1.7565724423782145 -0.9292661161846046
C -1.3419909051698737 -1.856375394722296 -1.0365274659834978
C -0.5142695452488351 -0.8727035436345837 -0.4941427743755922
C -1.0608793687482667 0.22708552692394968 0.19459922372407748
C -2.467070196651478 0.3472659515362338 0.2828797469228536
C -3.2897310639601827 -0.6433231693442283 -0.2771721713147475
C -3.1134332323946956 1.57863366354273 0.8708220166174555
C -2.1538960992654674 2.4037751562461644 1.7358321675458595
C -0.774974815437016 2.5694041221444164 1.078230358427801
C -0.8265887598502083 3.429718398806783 -0.19004864261249846
N -0.21027646209789314 1.246161303901248 0.7744641272034796
C 1.157647777596222 0.9719276298387252 1.1314084881578728
O 2.019333740900447 1.8920284518658435 1.0728886467432217
O 1.5188597059127966 -0.30446332840377344 1.5808720227534403
C 2.8639782159447336 -0.6875863720987622 1.856217492548339
C 3.6250984361430856 -0.8688907023796411 0.5719245070122687
C 4.589371807960867 0.07103567241422021 0.17157598599726465
C 5.268253154337359 -0.09047016572779201 -1.0403800606143183
C 4.985643252813302 -1.1857086767063985 -1.861463125935721
C 4.0225247156750665 -2.120863019094565 -1.4726125797055194
C 3.3422939372709037 -1.9635508969398425 -0.26117833388113826
H -5.3508265846648495 -1.9169547946824115 -1.991414779285439
H -5.298022284706669 -2.8184489233154193 -0.4098708949452565
H -5.295292714036762 -3.7192536617053293 -1.9722931468580045
H -0.9004392633237739 -2.6980598840676366 -1.5552304480552666
H 0.5528185456234275 -0.9653445103369958 -0.6379561251388348
H -4.364039656119758 -0.5312360828710487 -0.21209324871786364
H -3.4956207504711188 2.210099897634754 0.04026962953096836
H -3.985399440522004 1.2830646473026763 1.494238854247384
H -2.6021185130991253 3.399740791630255 1.9439385535691613
H -2.0205220155430457 1.8875686016320785 2.7122160571077933
H -0.13085138427559484 3.0995768315462833 1.8158925143909062
H -1.4123385461321214 2.92979055031509 -0.9897000820821295
H -1.284651819039564 4.416597416334429 0.03313519275780957
H 0.20390575372671313 3.599592035582462 -0.5675275291642231
H 3.3485780577326736 0.06377599860487479 2.517744636601894
H 2.852142597938477 -1.651008011906412 2.4084426240405286
H 4.813548613801347 0.9283741920091539 0.7939642878612744
H 6.011436363139446 0.6352438574380923 -1.3444925403225032
H 5.510807901503 -1.3081932287697797 -2.799882918383038
H 3.800984946695384 -2.966215340465918 -2.1111542671127275
H 2.592281194328337 -2.6903530572027714 0.0260241001475743
