72
005811
O -0.7220706873709257 1.667054732944946 -2.4923968157283203
C -1.6562838029909233 1.6407605336965854 -1.6466221574115507
C -2.8097878014400286 0.7593472801261829 -1.8820438091687532
C -3.770775558689461 0.5958825852753988 -0.9613256341671734
C -4.952670816178134 -0.2933179407950792 -1.1218364881488605
C -5.093361408785776 -1.2049410650684327 -2.1908579294388253
C -6.231457375968286 -2.0098126171787785 -2.289150360323198
C -7.23711950369584 -1.926180655513524 -1.3259922764515377
C -7.104492925378034 -1.0407488045348965 -0.2557882045193599
C -5.969478714975536 -0.23200463440968494 -0.15203820681515384
O -1.597823451253086 2.4432663061280966 -0.4996604255840118
C -0.3925135574223963 3.0276151046816233 -0.0009638760204368388
C 0.4206599918339229 1.9634969094330337 0.7639588752508825
O 0.8064753478322745 0.9567513901574703 -0.1540926187263583
C 1.1082790267792064 -0.27733915127619757 0.48080740662379917
C 2.636710981469061 -0.4640697292831637 0.5295093949024561
C 3.2367059026438163 -0.7268779649500705 -0.833870802353629
C 4.615504759038477 -0.5316080611095513 -1.0875616272957238
O 5.502590338809049 -0.09194842695719391 -0.10217932378875784
C 5.130412304892795 -0.7948477903927678 -2.361275619585356
C 4.306705772285089 -1.2859657593410843 -3.377164873274695
O 4.850623139440799 -1.5657570914069212 -4.627820613695061
C 2.950990857668736 -1.5118067990928008 -3.1232818457421594
C 2.418893987386501 -1.2546272846408437 -1.8564766871935916
O 1.0669000729466123 -1.535951474023614 -1.620220632188744
C 0.44545375147131056 -1.4040696594164461 -0.3380783043633359
C 0.4273262256491066 -2.7214835349509836 0.4156654546922757
C -0.6020546579588617 -2.9647975657739347 1.340800971088127
C -0.6272407300884765 -4.148310467365869 2.080398146567279
C 0.37843276108872553 -5.1047243924505254 1.9170448344835476
O 0.32816290685313726 -6.277957948454553 2.671028427008467
C 1.4180624091837626 -4.87305942669435 1.001260520293894
O 2.424662460790808 -5.821891912549385 0.832596697175942
C 1.44175160089018 -3.6845613974196834 0.25787999954157254
O 1.589591345932986 2.542797727915395 1.3211376524534983
C 1.2527376721729557 3.4999222817316733 2.3097427608232897
C 2.5435286275922397 3.953779930706027 3.008161864283362
O 3.4624575696052378 4.470508353205036 2.080313082084207
C 0.5025619327696801 4.691055016880236 1.669587900573077
O 0.1325770360285859 5.606734747038761 2.669539337583774
C -0.7548638364533372 4.183246806941321 0.9477685445679164
O -1.3311217138664988 5.238353824943278 0.22019731235282014
H -2.8413600228989866 0.2337273207717127 -2.8252156414003493
H -3.6980499763019163 1.1529178532902782 -0.03282221409561753
H -4.333344382165876 -1.3199088440394202 -2.9478662838422016
H -6.330716033347126 -2.704764565806334 -3.1126942063404517
H -8.117452877377424 -2.5506157310702973 -1.4052856615912561
H -7.883618915187445 -0.9781736886202433 0.492741809630899
H -5.887520679884802 0.4486717898340693 0.6855478822111267
H 0.2161243527120561 3.4356398882148094 -0.8403335362009748
H -0.2487562927725885 1.5525304179515418 1.5612106287933234
H 0.7260778201033589 -0.3439279047245907 1.5273315958611775
H 3.0742470735498793 0.45441875911173113 0.969075358906637
H 2.890202523552339 -1.3133797217063938 1.198345262957122
H 5.2384388103865165 0.05517199203790072 0.8619283904609898
H 6.18401016300935 -0.6326668157784796 -2.5575145040091205
H 4.2871779252424185 -1.9431878010455181 -5.379805129714872
H 2.312689521673802 -1.9119424788644093 -3.899230559865165
H -0.6103478071873837 -1.1112380783281055 -0.5254357837810512
H -1.3850767933675123 -2.231788097980651 1.4936339759483257
H -1.4301002448918696 -4.322485603721785 2.785958882980304
H 1.0370144882651537 -6.997971594032895 2.592669272301168
H 3.168701926470897 -5.693724348386561 0.15705632449296014
H 2.254383085737019 -3.520894538361271 -0.43503201669299413
H 0.6119586244078891 3.0361464084977743 3.096895017034599
H 3.0079052165443394 3.074530575079453 3.503099654092971
H 2.3190718510597077 4.6942056015491875 3.8091040387255113
H 3.316309096316058 5.4530087266485765 2.047286073376501
H 1.1726518590592407 5.175263513579829 0.9183551547836684
H 0.16085813555261325 6.510226460948079 2.261603445127412
H -1.4757580273703361 3.813408125156993 1.7170198003011434
H -2.281362661428829 4.994890403040285 0.06567291918261467
