41
006689
C -2.874482011661507 0.45839393944386 1.2804315462475866
O -2.2920880898988294 -0.06524707577673224 0.08801992972829058
C -1.4827101725123624 -1.2157947219258736 0.0030966687279972605
C -1.318396394314211 -2.0203640471604296 1.0846162582572294
C -0.44971059457458606 -3.2069357086171006 1.18089533432945
N -0.9367405052290327 -4.38676374092908 1.8205249104537193
O 0.7469288845427366 -3.1673030258292107 0.7897432689320489
C -0.8532726731832632 -1.4424652300829202 -1.3708095524965573
C -0.9728622508727125 -2.889923403736692 -1.8795204162867365
C 0.5868563182492702 -0.8805295604220145 -1.4843225578651502
C 0.6004298292595228 0.5730776185692998 -1.0702808998062658
C 1.081694586137473 0.9585705604353951 0.12008744304135278
C 1.0403863887144706 2.357390000444537 0.605701941821512
C 0.08596144320954205 3.2872820281755515 0.14277558111083521
C 0.07678940652817405 4.594167958770045 0.6394840902117672
C 1.0041646731580527 4.983685861236907 1.609492989904893
C 1.9400579820146657 4.064669997611181 2.090324224336597
C 1.9558131727175196 2.756796510643808 1.5957680787765334
O 1.0077567320732872 -0.9784460198196228 -2.836661363685341
C 2.416883128594405 -1.0493320947495823 -2.9151756042771333
H -3.3848375256159366 1.414243913850852 1.0417820564190161
H -3.628725125030013 -0.25056531704528046 1.6789846406382316
H -2.084394569027047 0.6553452919464162 2.03765005137594
H -1.9025728571504505 -1.8269678329890124 1.9739597563779439
H -1.9152784837477081 -4.432544254082608 2.1842720995177487
H -0.32435643047804197 -5.227360353528513 1.9099650358983913
H -1.471876794443237 -0.8479223952732723 -2.083056078668424
H -0.8962691122080889 -2.9051927326784237 -2.9890804287793724
H -1.958986705490618 -3.320794503291317 -1.5995884162658758
H -0.1644646070215659 -3.5384871327681315 -1.4855222052701649
H 1.2456241713395766 -1.4735382585892947 -0.8129355465718671
H 0.1567480821413817 1.2899812973022868 -1.7490164743807879
H 1.5495980512810248 0.21787420009111771 0.7602491649626725
H -0.6674831012570633 3.007210373821122 -0.5812863871695486
H -0.6566750752868102 5.303603512271207 0.27770065994428456
H 0.9948791080285704 5.995768275617888 1.9913224784838395
H 2.652839945020646 4.364567403469665 2.848206115395447
H 2.6901841386468375 2.057908333632622 1.9791748079312992
H 2.789616583736707 -1.999810905894548 -2.47251130366175
H 2.899334690867033 -0.1772517440589972 -2.4197518013714436
H 2.713635762742187 -1.0369970180851065 -3.9847100962682114
