30
007007
C 4.889390487465418 0.6094061484033961 1.5964319798670992
O 4.119355079420196 -0.34130621339946104 0.8708549018214202
C 3.4115699120002496 -0.009277282337636732 -0.2876632215888946
O 3.4139671299750574 1.1727466281951189 -0.7278455667096557
C 2.6013545971052356 -1.0536792122364973 -0.9775355561400396
O 1.2886309933632076 -1.0546697488391577 -0.44313665429628646
N 0.33642126221631313 -1.922034857034964 -0.9310705605212021
C -0.8765775508244472 -1.9275497829551511 -0.47337388048905404
C -1.3116862981324746 -0.987467684165261 0.6272232302258878
C -2.666699332077199 -1.3146975155573606 1.128882715999838
O -3.014667696713179 -2.4532702968110467 1.539516393595889
O -3.5087077407166496 -0.2260326085087114 1.1587289925280477
C -2.8634366729779708 0.9470340500208401 0.6915039077672586
C -3.5905483753693264 1.517297895836984 -0.5321082037390733
C -2.649823841109358 1.2902553690685263 -1.6591592396539903
C -1.5089746392651524 0.748694790373238 -1.2685525457569897
C -1.4640545563470617 0.5009589527617854 0.20712119535673248
H 5.3556968494556925 0.1101943983775125 2.4704173571137344
H 5.690679005095848 1.0237878379450278 0.9485557183294551
H 4.235955643637103 1.431560542164894 1.957869625156032
H 2.560559203782445 -0.8421639942848662 -2.0679102628960844
H 3.067164536184164 -2.050291210130211 -0.8230442696932372
H -1.5848657264791493 -2.6312433261409627 -0.8929667843640854
H -0.6037372104934382 -1.065941273258254 1.4811970070055969
H -2.791456812122497 1.6942895151178348 1.511991997368352
H -3.769300525395342 2.606898005678825 -0.4094877238133725
H -4.552469871503721 0.9949314970050205 -0.7240516934756154
H -2.8591470066789837 1.5624563347464695 -2.6884265973092654
H -0.688572996339599 0.5429893907184418 -1.9485263493143061
H -0.6660178471553749 1.1261236492456255 0.6645640876258103
