36
007262
C 2.291455499186044 1.193721497574474 -1.3753120047946497
C 2.381291772866639 -0.09814840453224274 -0.5505338663181616
C 3.3882687250998593 0.07603203511144249 0.5944476925243011
C 1.0507232017364172 -0.7770044451670222 -0.06832333484987468
C 0.40760491344869826 -0.3734925282170973 1.2327952415787888
O 0.9681484503134935 -0.3345785020107884 2.3175822450808443
C -1.0925206834224637 -0.2965123903549639 1.0229766851222286
C -1.865579789941752 0.39835149776301426 2.1515318981749263
C -1.5543872615413923 -1.7505708310728667 0.7331928283210991
C -1.0027497887814738 -2.0148078239858833 -0.6927360734958573
C -0.2129361196234004 -0.7101428820793882 -0.9996051497706139
C -1.1504187876652205 0.3680195787423244 -0.3610825108932246
C -0.615945702435846 1.8282792334150184 -0.35645839865516366
C -2.567934895064352 0.44077204541197984 -1.016193622180883
H 2.124909578672275 2.083066125415162 -0.7382924578372759
H 1.5266212859436858 1.1191914250912023 -2.1715687514260202
H 3.2621915116082123 1.3628792712838715 -1.889417623052459
H 2.8410495522901393 -0.8359829569581965 -1.2476538387347442
H 3.5014825179998135 -0.874253650391692 1.1586908030942091
H 4.384763629162076 0.35459101035062485 0.18924635679355217
H 3.0570348642377962 0.8769779443499979 1.2888452897444647
H 1.358257041882466 -1.8375512186795098 0.08346660837562686
H -1.7710686005100036 -0.18773707748560736 3.090093188091018
H -2.9420674059788268 0.4756224620624895 1.8920785290032998
H -1.4646537611046628 1.4179962718391441 2.3305875900620334
H -1.1258104666808402 -2.4680954250512857 1.468258172770181
H -2.661015959089308 -1.848013895086343 0.759436591756955
H -0.36707668388467946 -2.926533457765163 -0.7243312382636178
H -1.8182285708178572 -2.1760562309084936 -1.4286033388320536
H -0.0007076132599853196 -0.5827116045243783 -2.0815755113832473
H -0.3714423436308042 2.155573245596946 -1.3874396125350847
H -1.3896749802632393 2.5248749172187583 0.03155579650068859
H 0.24766961078985947 1.975128084457941 0.3164740747241142
H -2.46769577011389 0.7280954268226983 -2.084583627341391
H -3.1938477581843965 1.206739701571456 -0.510703040668448
H -3.1557092132430804 -0.49371844980761964 -0.9768455906855593
