58
007691
C 1.054336234609604 1.6328693131437237 -2.0637091030607726
C 1.8534284176225098 1.0993804081725507 -0.8776812880392393
N 1.8876253053265557 -0.37739219250599787 -0.8946249841791659
C 2.797622066871469 -0.9053671976635246 -1.9243631357599886
C 3.4975759430678477 -2.1103587427111075 -1.3335667748564586
C 3.550230333881357 -1.807480388290164 0.1416667445627089
C 2.319922240470022 -0.9358456621767824 0.4022294499557405
C 1.1780170571939124 -1.766551027045053 1.008216704615398
N -0.019541080260382825 -0.9472116408474438 1.1979000144698277
C -1.1236549777632319 -0.9686672372156422 0.28275955612659726
O -1.0311102316635659 -1.5903793266857646 -0.8109200451644089
C -2.38157193273341 -0.26806914791850706 0.610420904106326
C -2.3689282055763203 1.1263579585098402 0.831226942723554
O -1.1503586163344985 1.8201550102932982 0.7477191403498444
C -1.0076280884454867 3.229230678980351 0.8998657970442603
C -3.5768465898828024 1.7928525089337992 1.11000570814325
C -4.778497311563011 1.088593300718892 1.1562383015919186
C -4.796473915577068 -0.2888888273063239 0.9367229085387544
I -6.642296513637424 -1.313652430933097 1.033552805832128
C -3.6044973473730244 -0.977670802948912 0.67210405343724
O -3.6590845594029626 -2.361696648301144 0.49496068168901114
O -2.2336576461518303 -0.7623413055921222 1.2983395715140664
C -1.869202309607321 -0.3020343285282826 0.18223700256282824
O -2.771750956900906 0.40818266001947523 -0.603764517584049
C -0.45342672119939814 -0.4878341544222372 -0.2877333184253905
O -0.0496811038856758 -1.8135171282065832 -0.05926809045509104
C 0.4928820448675653 0.4776623652297483 0.45736786735153323
O 0.0913120163679114 1.8153441222091342 0.2942523269300277
C 1.919100757881583 0.30776211894787747 0.006930325129450982
O 2.2329838769843007 0.49808352433622577 -1.1983376908432677
O 2.8971325104206196 -0.05829522968992933 0.9271631811081332
H 0.03425390088151994 1.1913959080057455 -2.063614550853899
H 1.5606190209557733 1.3821401272228582 -3.0199592967415763
H 0.9646735258531753 2.737249817010581 -1.987745718759147
H 1.3487280138020303 1.4553380753723637 0.04553526650347383
H 2.8804564237852692 1.5309943004081166 -0.8778294677396405
H 2.2188059361746295 -1.1984272138230994 -2.8249238300831276
H 3.5692806190651654 -0.16082495166373834 -2.226582983154276
H 4.512788258187472 -2.251032829904437 -1.761800757095706
H 2.8880066371255118 -3.0234404252037947 -1.5082769707674661
H 4.470618630396298 -1.2250141152827154 0.3628206664882948
H 3.567834966774283 -2.7409657837799486 0.7443057108946726
H 2.599321054003079 -0.14528299191580626 1.137889816382236
H 0.9519156233671041 -2.643642599629283 0.3622294932634751
H 1.4976000245369705 -2.1612970199304913 1.997302523481248
H -0.06514478155485914 -0.32735823484744364 2.0377936645462738
H -1.3360923381315053 3.5393299657850372 1.9142639848831862
H -1.6013627115984281 3.75870771372457 0.12494276767181119
H 0.060150534031761994 3.5012434448294103 0.7743744057238828
H -3.6000444046168023 2.860093549915223 1.2833517844823474
H -5.699519951876911 1.6166812845082115 1.3664212919172676
H -2.835489398620126 -2.9417376944642037 0.3949510032035227
H -3.727007890576326 0.5504659013229772 -0.2975901531969261
H -0.4061245033663775 -0.26716720028888996 -1.3800607071080115
H -0.5030485706782242 -2.373492841925838 -0.7421213391805221
H 0.4463172479324639 0.24220739617370335 1.54340000859766
H 0.08622583001201647 2.0140876190156156 -0.679012881132316
H 3.862277606528101 -0.17347175114102328 0.6420252283584907
