45
009391
C -3.9637136863989566 2.9929151046045726 3.0773475580608194
C -3.3254936263277166 1.9301542349817324 2.2327921054797235
C -2.866844022412855 2.2329374769713333 0.9436438533032737
C -2.239585893301358 1.2533414900243696 0.1692971626986929
C -2.0305913487003937 -0.042140010511939614 0.6812742632909119
C -1.3746502504667024 -1.1130395130243438 -0.1826258109527137
C -2.4434199247727024 -1.7157778997459248 -1.058029242941155
O -3.3625326704260656 -2.353299743197332 -0.5674707440153517
O -0.8267535467375183 -2.140197186802785 0.6505947616950982
C 0.2250985533531187 -2.819988883604233 -0.0036530008669428977
C 1.4360855292330843 -1.8729213263307152 -0.20350512659705647
C 2.2397224297467724 -2.3574696102766737 -1.4326231058249794
C 2.348505913649365 -1.9281860067836774 1.04086122959044
C 0.860946779729837 -0.4289459565005124 -0.3805331443070242
C 1.7768953196531427 0.5182869662782675 -1.1351417760296787
C 1.701606256205973 0.6412650662605731 -2.5365561715607288
C 2.567987998788316 1.5003485251946753 -3.2189216128537326
C 3.517696408147602 2.2431209316815575 -2.5139357285780184
C 3.6032910936647466 2.1280604814556163 -1.1246455176259282
C 2.7395345309031924 1.270288460997516 -0.4372888047232979
O -0.39557048846997483 -0.5040166105750112 -1.0290936423542598
C -2.5016438401040797 -0.3401420588954599 1.9751633236265702
C -3.129099851973077 0.641393196093065 2.7474812489089766
H -3.179681765097587 3.5248694914485617 3.655600384801164
H -4.505432550403608 3.725630779725992 2.4419606735929995
H -4.6947312299744715 2.545720191437028 3.7842218476415534
H -2.9997346474834234 3.2269317937753126 0.5344636591817351
H -1.915258774317124 1.5094752500804456 -0.8314841932657128
H -2.3990788829305987 -1.5927320250050867 -2.1356802229554033
H 0.5111044241187901 -3.704323803782748 0.6055341737651646
H -0.13832971073393843 -3.2301645271560773 -0.974839980672333
H 1.6298609859245297 -2.275860429087723 -2.3575994175784474
H 2.5354372473083777 -3.4216081686254025 -1.3067265684862344
H 3.168681951072506 -1.7623522429341396 -1.564309035797146
H 3.2138797639887695 -1.2427519152998865 0.9241992010740869
H 1.786793611487657 -1.6373188098524447 1.9547078152059023
H 2.745032080080029 -2.955482092515565 1.191992455467336
H 0.7067744410760775 0.02924129145457616 0.6270515074816096
H 0.9783207910360706 0.06891107696908773 -3.103328451973501
H 2.504610689443661 1.5879961940895146 -4.295821105779776
H 4.187966984832611 2.907108724176126 -3.0443009244029384
H 4.340020693074122 2.7037431180475004 -0.5793563483746483
H 2.820250014423381 1.1953225557020308 0.6398793926004912
H -2.386693053246284 -1.3317812839785779 2.393276041237822
H -3.467264726663295 0.3934377030368015 3.74612701981264
