36
009414
C -2.7571092011855844 0.9288153902671906 1.369083695428208
C -1.922524528941397 -0.16462800383871204 0.6845783501321087
C -2.8332422794445162 -1.214600195819216 0.02896614053732149
C -0.8351208696248101 0.4002210265930667 -0.28975747998857354
C -1.389185593300386 1.4872074327684803 -1.2561262155223822
O -2.454663625926261 0.9883863689696951 -2.0149608300108284
N 0.31350291017251974 0.8897102861181131 0.5347028136525064
O 0.7932900159819068 2.087402386744647 0.06939668036104599
C 2.0364713922996636 1.842489532510319 -0.5501498260755309
C 2.484174081832374 0.43360012060323944 -0.21645175724204632
C 2.3503169839527005 -0.573060736593847 -1.3577509003397537
O 1.7276273020988056 -1.7455110526278188 -0.8816019369875425
C 1.3138446574737896 -1.5073634369420847 0.44588337426536756
C 2.172805651191729 -2.359089217832724 1.3861928236989438
C 1.4733198079513912 -0.006112792514512636 0.7538541345360738
H -3.4462300623943225 1.4175271889494376 0.6483915881889434
H -3.368515181203949 0.48402005450631097 2.183203516986061
H -2.0920587836273743 1.6970031823532303 1.8177490191076553
H -1.3952045086954108 -0.6949581837191111 1.5073049787809036
H -3.54372506708346 -0.7541351419996428 -0.6861984336930198
H -3.4291355454700065 -1.7330218504905992 0.8104034662827104
H -2.227345157454175 -1.9807754781532612 -0.499529922075618
H -0.5004454822378839 -0.41127018427802403 -0.9665797157205364
H -0.5831353768984826 1.7949068096653074 -1.9589439844097718
H -1.7122217646127584 2.388433367398612 -0.689090812560611
H -2.7738639171031 1.7432004209523808 -2.574735384478944
H 1.9529427517653075 2.017573534038441 -1.6438425767044063
H 2.776414645982704 2.568638449579089 -0.15103453979875545
H 3.5084902363816486 0.4083106310177239 0.22091059327333973
H 3.3552013626897184 -0.8267980051128505 -1.75701127074562
H 1.739659613021859 -0.17374930388988166 -2.1962790255161115
H 0.27381715645930815 -1.8603320648148576 0.5741126577503352
H 3.243791437529887 -2.074893782442833 1.3028680360859286
H 2.0687467018143924 -3.4328457449376386 1.1216155771639627
H 1.8406943165591383 -2.22344853905207 2.4376562650488305
H 1.8386159200450318 0.15914753202440005 1.7931709005898064
