48
009522
C -1.475815045320483 0.4531668251019386 -1.9396976475688315
N -0.9358870467079087 0.03813342889241988 -0.6236357227126313
C -1.80409967288576 0.5934978307480038 0.44428544066589837
C -3.1551267617657017 -0.0724791216569184 0.44041454850385575
C -3.370239075543184 -1.410776789071415 0.7111165000585694
C -4.728637736784312 -1.6224343476500782 0.5785566823966201
C -5.288091584825066 -0.40893401551303127 0.2307514638968043
N -4.327105153322242 0.5317315565243775 0.1452685011195618
C -4.53689443691174 1.9351178301992356 -0.2003252458662734
C 0.47638053717164625 0.5040085578025346 -0.49766960075887984
C 1.1246023702879848 0.32810125648621 0.915155842304098
C 0.9805597423994857 -1.1648508285081938 1.3298126914714075
C 2.0591874876343876 -1.8695770101079703 0.48790406488909616
C 2.615575698913878 -0.7083067316390588 -0.3735238483889839
C 3.958678178143046 -1.0368496964391678 -1.0381714549767969
C 1.5019336382875201 -0.28601268927504725 -1.3921303629081916
O 0.9787055387688536 -1.3890917848666577 -2.10220850635848
C 2.634382874623213 0.46579749661613906 0.6316293594501969
C 3.0608274814251737 1.8455004139671143 0.03695653315160866
C 3.52250285087631 0.2685992589216062 1.9018903449251412
H -0.8190609421754034 0.1358446807365471 -2.7736643731724895
H -1.5912314346498944 1.558300163873513 -2.001342315647415
H -2.4612685778629833 -0.025031697126672053 -2.1214544048562596
H -1.893669528437803 1.6979723738443306 0.35098612948292346
H -1.384931841003016 0.3923144509262028 1.448908458964524
H -2.62357347160453 -2.149895045841567 0.9698397020968752
H -5.252374572015027 -2.5586513815800904 0.7171800951442643
H -6.340246392099991 -0.23014431491456738 0.04916428716145771
H -3.949665068987096 2.191194518878769 -1.106616746305979
H -4.216465676438946 2.580866984755959 0.6439643932671393
H -5.610563803606645 2.1307291855019437 -0.4083806106262156
H 0.506022866939059 1.5879795369323233 -0.7523705849861705
H 0.7608859620762788 1.0492139404131264 1.6785202078111496
H -0.023589961025129592 -1.5832145135809903 1.110045775268054
H 1.1649925892693527 -1.2966700716432553 2.4170006662679313
H 1.6509959387124666 -2.7137556042111526 -0.10361046635645858
H 2.84689274088386 -2.309594704461608 1.135985145170027
H 4.7151253756409774 -1.3166412972610155 -0.2756260454347628
H 3.833462592847521 -1.8896619046730996 -1.7383028553588247
H 4.334278564831277 -0.1628232271476617 -1.6103177873734391
H 1.9236571180797908 0.40338351547720447 -2.153725708513222
H 0.2833064750819204 -1.8364196716640815 -1.5577582804197043
H 2.6445035127182566 2.0842231022856126 -0.9574092872922236
H 2.7575564281001625 2.660462831942899 0.7284145521053466
H 4.164983455484863 1.887671292633757 -0.07988772573560851
H 3.3095707394868823 -0.6388706778959009 2.4945965029451775
H 4.595168514458378 0.22847073500746687 1.6174205581913812
H 3.3837985108303132 1.1284053582599658 2.59206113490873
