39
009993
C -0.5738881328026811 2.658943377012667 -1.4261555090038007
C -0.69990896220293 1.1567006565010736 -1.1557057868115688
O -2.0660219244986995 0.8133589616758587 -1.0540591538720614
C -2.342161441068105 0.6758358075272192 0.31794070235767513
C -3.490016899666557 -0.3157333688250205 0.5559076254435451
C -3.150139756069573 -1.7690746463591074 0.16559302975135318
C -1.6459721713924524 -2.0412016375754405 0.015723700132736905
C -0.8055472650765252 -1.257766000477542 1.0417067993239257
O 0.5570436426806927 -1.4319308859941493 0.75823683012822
N 0.9040474082084732 -0.4299266709345186 -0.11073469110104428
C 2.3697694636046154 -0.18029498933741228 -0.01859764367116166
C 3.105713143655146 -1.4541358634195929 -0.4875823653010475
C 2.7906628438631707 0.9707003450607349 -0.9607472648262876
C 2.8174884556063753 0.14259039876129798 1.428958592040749
C 0.02772374537646883 0.7339906099144949 0.1364584688352095
C -1.05979751325199 0.2435195649217805 1.0170854599776522
H -0.97624271285919 3.24425833458601 -0.5719316185732429
H -1.1460307856793324 2.924196661406853 -2.3402614428473063
H 0.48829072993528433 2.935271717741475 -1.5878291704420242
H -0.2717518235942536 0.6181937779568972 -2.0297577257846857
H -2.65461447082733 1.669072474714203 0.7138274249746577
H -4.389572291476732 0.020135295832089676 -0.004369428711107153
H -3.7511477341480846 -0.2875346452858922 1.6370229823100493
H -3.6502945927033386 -2.019049411741273 -0.7954660822282534
H -3.5671303827690344 -2.4535480199153215 0.9365563444026773
H -1.3296446729581413 -1.7674827123460701 -1.0147083145887377
H -1.4555279166878472 -3.129669049716852 0.13628825120964544
H -1.0186842517176287 -1.653541858706119 2.05876609206771
H 2.8827857764426903 -2.3125637236275773 0.1815861252313738
H 4.20707250617859 -1.30241315852059 -0.48813379277311186
H 2.7873319342815543 -1.7257898571998054 -1.517283574754064
H 2.4412288646004265 1.9535970078430176 -0.5854968757918754
H 3.897785517079782 1.0322503606830888 -1.0390740485722436
H 2.376127844514244 0.8087201030847384 -1.9788235311765916
H 2.5481543101157453 -0.6812951227763903 2.123242280377067
H 3.9203677754755635 0.2744409274029554 1.4702296263100378
H 2.357887584505165 1.0782896286967336 1.8053267693929527
H 0.5479236903750159 1.585698634258123 0.6244653503154768
H -0.9833095350485792 0.6731869771773622 2.041795566247501
