55
010149
C 1.8077431680159042 3.25894353409659 1.6434386229197429
C 1.258030262920539 2.5135778645663764 0.41334074354166667
C 2.2962059246146413 2.6039421854688056 -0.7174819204879157
C 0.9129948618491667 1.0255614154063653 0.7459268141167078
C -0.04078056745678019 0.8761333263114828 1.946771976274943
C -0.6427382836556725 -0.5293962301648341 2.0551111239167605
C 0.21104509548997696 -1.6118050730288247 1.360884198160601
C -0.500213674070386 -2.965546652364109 1.5686871228213093
C 0.4309572149760131 -1.2635813862232055 -0.16121808483272834
C 1.682731682286703 -1.9186624516252115 -0.8417000088364127
C 1.6647253838154306 -3.452543903140733 -0.8428999450983562
C 3.0357330104172027 -1.407113260010224 -0.32363600301761164
N 0.46075162901136446 0.20939300973116853 -0.4224877764517195
C -0.6047976394064799 0.7601083900785369 -1.3240036441305536
C -0.4962476795165674 0.18574648979895708 -2.7538159712275667
O 0.7516395940667556 0.5056307932699023 -3.3043229042451063
C -2.022539116746195 0.6544896614885084 -0.7638117810447922
C -2.816844268914157 -0.5031653869552211 -0.9229840501937098
C -4.106529814533886 -0.56059730385745 -0.38697988336295586
C -4.632842890508819 0.5366068186717613 0.29525292111501195
C -3.876112117961212 1.7004896159324412 0.430056159307725
C -2.586375364583167 1.7642599155664507 -0.10368599460957517
H 2.679850423384811 2.7212229039735187 2.073705569532796
H 1.024072748245784 3.363363606751411 2.4224281361097315
H 2.1267501169248426 4.285976147060279 1.3636329104056588
H 0.344584011867365 3.0611129243378135 0.10602062908160502
H 3.2577598503533807 2.145550379270386 -0.40231715939604135
H 1.9446743360180714 2.0890773785631347 -1.6313941011687705
H 2.481140379375509 3.666763754419108 -0.9829436462801157
H 1.8742093172112118 0.5916813377825949 1.0952178000533452
H 0.529006969834516 1.0788153450116933 2.880600934495071
H -0.8549436950165608 1.6268316481087306 1.904601240545379
H -1.664610796418372 -0.5280753848458105 1.6246818524588063
H -0.7596586910975708 -0.7768231725035423 3.1336179021922352
H 1.1867387828596105 -1.6576264149121254 1.8875471390026097
H 0.13562169430712323 -3.8206568699650783 1.286311952375966
H -1.4464170296982295 -3.009577473034395 0.9876667079142054
H -0.7468244487448105 -3.1106697804164822 2.642390788841805
H -0.4321577429279688 -1.7038566153171721 -0.6876554725867109
H 1.6397996455995483 -1.62638668933387 -1.913612481473566
H 0.6500409884995862 -3.8368700466923817 -1.0802427082040007
H 2.0126326652652526 -3.853912583618152 0.13146926125309294
H 2.358713886902894 -3.8340748408092606 -1.622666737469885
H 3.15721710884415 -0.33072010907644817 -0.5566502367827396
H 3.1457812558816802 -1.5722425732009155 0.7668528616314405
H 3.8654999835609174 -1.938868192207732 -0.8367318809354498
H -0.41495768974403674 1.8368125738810763 -1.4919592972171933
H -0.6305674613414588 -0.9157393062323147 -2.769623152760422
H -1.2967800576425559 0.6335672179007807 -3.3855693238902274
H 0.756846841809248 0.12380514360586954 -4.220398607983767
H -2.4610524547639017 -1.3633395686801422 -1.4692743605208707
H -4.701848526646686 -1.4565797404852356 -0.5076405944647552
H -5.6320801584107505 0.4891485862716435 0.7083157453661882
H -4.289814686418661 2.556851398049924 0.9466882375588748
H -2.025763977984313 2.6829676433255596 0.0064883776802350255
