45
013073
C -3.5159371883305774 -2.050904533558855 -0.17176616491048
C -2.178828834453964 -1.4253398717354986 -0.6201124941297613
C -1.047461443963347 -2.4261813430643926 -0.31456362706383745
C -1.9461248518604664 -0.009447667988595402 0.0271214303182766
C -3.129580793676068 0.9349047033230062 -0.32460709363778517
C -2.93292789578588 2.3587401409974937 0.1982423689519943
C -1.6351173505725687 2.959727525116197 -0.34757623936363136
C -1.4559390722228045 4.398281794133213 0.15063736526346005
C -0.4511704975013006 2.0875762527364263 0.08296425788867885
C -0.5938852204131164 0.6357663734803907 -0.41540634199497106
O 0.49731580206427894 -0.11345345958707473 0.12032216504561163
C 1.7984590239672653 -0.07494202169517854 -0.3961752286400646
O 2.068387156516845 0.6531571474110839 -1.390430107848774
C 2.861814414343984 -0.8621920164229636 0.265111855647398
C 2.8092002249206973 -0.9878199230593402 1.6649607682603547
C 3.832194109365274 -1.630647207770972 2.362418661241879
C 4.922501180108306 -2.1576393847968647 1.6741974579918362
C 4.982994135705869 -2.0657581561898004 0.2831469721201853
C 3.951645117726086 -1.4422147115109876 -0.442794488932851
C 4.021396595939456 -1.484321230183267 -1.9220571277289524
O 2.9736497417308136 -1.5760883213075325 -2.61484753626349
O 5.2556222227567355 -1.4898454468730211 -2.5615759712058006
H -3.601715091740438 -2.038982745955583 0.9358932204734106
H -4.376300311065159 -1.5115124590230429 -0.6176175514227852
H -3.602590950008307 -3.1014214205554733 -0.5227134118527362
H -2.2234206943968324 -1.3066358817676802 -1.7258233500546578
H -0.7909515159693135 -2.4141203616888047 0.7664245671575516
H -0.1492103819247722 -2.1974585727881903 -0.9232114822296854
H -1.3397482459233467 -3.4609094168077217 -0.5938389200586246
H -1.9230789878630006 -0.12843137772086916 1.134110341383475
H -3.272472510848905 0.9672706050491705 -1.4276029598605917
H -4.067925541268496 0.5604897209396683 0.13398269852913455
H -3.7970691701958277 2.980244823878549 -0.124086590089666
H -2.915002862395552 2.3458020297991427 1.3111286356152885
H -1.6826484143833267 2.9849488878663735 -1.4598106170609566
H -2.3084513402304254 5.027227980215902 -0.1836511651731379
H -1.4020862563699608 4.427434978448023 1.260356868135164
H -0.5221009661844505 4.833123385187503 -0.2652560375831521
H 0.4861853232916514 2.5229498686698815 -0.3260365214840328
H -0.3664837061722721 2.0869244954578345 1.1930832743124165
H -0.5482027913740439 0.6249028172256402 -1.5282347146557458
H 1.9875128556501211 -0.5589416993911891 2.226027265658464
H 3.7849004541713693 -1.7092223201247205 3.4409443968031
H 5.717320409753807 -2.651209042839249 2.2185358410926517
H 5.8253341190819645 -2.5138329355286326 -0.22981466864415634
