69
015499
C 9.731778434298732 -3.229071944888843 -1.6241642104351122
O 9.137390200560125 -1.938770854249553 -1.7319855600016199
C 8.065245947081205 -1.4860540969844542 -0.9477127575772323
C 7.480596887628113 -2.282903799552283 0.05297602881509988
C 6.417795743651019 -1.7922065135695426 0.8151810386232922
C 5.906105407453026 -0.5030070260165541 0.5883951486287569
C 4.746246918694295 -0.0091458177808962 1.4398282360343635
O 4.479759604726554 1.35992909242309 1.2152290638578496
C 3.3398640763613647 1.432265828885874 0.39225851229788083
C 2.510334792337353 0.17077617105687382 0.5844746998093869
C 3.4570044365348074 -0.8149214770878422 1.1726116099706663
C 2.7448055630778527 -1.3094619226465418 2.4382190330723637
O 1.408850485681808 -0.8737649615343911 2.4031985432667433
C 1.4159013335855695 0.30968913096951817 1.6453059236169096
C 0.06088042752127815 0.5530391709707049 1.0183764349325726
C -0.7357427982675504 -0.513078848298397 0.5740781560689107
C -1.9829004122820346 -0.2722780409718913 -0.005345937857004505
C -2.4541555591470874 1.0455523014583934 -0.17188719704993272
O -3.6755240990489555 1.3194563801006371 -0.8064231405805355
C -4.640563158091917 0.3506465400371043 -1.221294705539572
O -5.157528929724848 -0.2933485291464015 -0.06098346424004328
C -6.3709208503576535 -0.967295349376838 -0.33916811542388786
C -6.68210794374824 -1.9416239262159118 0.804237849990675
O -6.688353770037253 -1.2692865012623493 2.0343927186959068
C -7.518880229931276 0.057029003455291875 -0.5380977021946625
O -8.524440125604173 -0.5368010927777013 -1.320436890432408
C -6.998278348079895 1.350534276207982 -1.2276380136417469
O -6.761674407591913 2.374215845428418 -0.288940957959264
C -5.7282440573618585 1.0764989410745904 -2.0671002769811726
O -6.052226140997902 0.28261057821569047 -3.1818245742103852
C -1.655894839986869 2.1229462525740757 0.27855026416210804
O -2.0584015337151143 3.461891463195342 0.17840925987176054
C -3.3814598971076175 3.9263347652043348 0.4269369671818368
C -0.3975730439832199 1.8661753022489564 0.8370309880309115
C 6.497533413165401 0.29270087641362913 -0.4124602531144694
C 7.56808345529318 -0.1951916236019709 -1.1734643608963649
O 8.152848169590433 0.6052846123639096 -2.1537306672545133
H 10.170254559448189 -3.365244746293375 -0.6141261297709665
H 10.543535996830375 -3.315023287321599 -2.376516548551925
H 8.97543476789754 -4.014295832111121 -1.8271961485302872
H 7.841147486760179 -3.2828790527602694 0.2517873604273923
H 5.985308284815149 -2.425193444634773 1.5835355800802897
H 5.069404175261302 -0.11128894224326502 2.498431722163547
H 3.6633970710100723 1.5081542756462458 -0.6707776460413327
H 2.7603193541607003 2.349792520647755 0.6320673369481659
H 2.10729223106891 -0.19552693516410113 -0.3879963120987407
H 3.618516281911208 -1.6645402878253424 0.4692123679657291
H 2.7655166261518302 -2.4188931996801695 2.4767893275230315
H 3.2141471906387493 -0.9310366189011177 3.3732138532490787
H 1.6461205063566542 1.148124033427764 2.34308256536265
H -0.392585431859716 -1.535622393571867 0.6743747848889736
H -2.565920785287276 -1.119926014021528 -0.3349330338495057
H -4.129555149498698 -0.40143086620267676 -1.8648437702841454
H -6.262326295675233 -1.589178460760227 -1.2596911584026722
H -7.6713647450817275 -2.4230249962469035 0.6300994668477036
H -5.906038359319201 -2.739355814626934 0.8245960496449015
H -6.924116566365848 -1.9484679891953356 2.7199901038086045
H -7.947849143624096 0.3349327258989379 0.45389726916366263
H -9.347616036222067 0.0019082582550833263 -1.189984866561487
H -7.78657460080907 1.7353824058637797 -1.9119522962706694
H -6.137853005782636 2.0282940861407863 0.40162519269144453
H -5.321311098738028 2.04917620194854 -2.4357970294834224
H -6.61046950123292 0.8380748265907922 -3.7853931790994255
H -3.7493793459935163 3.533610167567718 1.4028934902680612
H -4.077408086925031 3.6465276922321324 -0.3936012264999201
H -3.356281798030448 5.034549376832825 0.4736749054847609
H 0.20978423178762595 2.704133048965023 1.1627697263671097
H 6.139508856507893 1.2941408975800468 -0.6061542555698753
H 7.820807177662391 1.5447641576411262 -2.340109193408804
