76
015718
C 6.873544958530592 -3.114560279181638 -0.15663543675398905
O 7.807785651313803 -2.0700493788860155 0.026702000416987996
C 7.148389060061886 -0.8926230499160795 0.45337373546032134
C 6.8823811153717696 0.02907872851729288 -0.7441544493401449
O 6.115306075064305 1.1468176697544492 -0.3374423478830974
C 4.737894250856347 0.9170822643001394 -0.5678093755866646
O 4.003769061909259 1.9480799506631559 0.05841973152732438
C 2.692466662409889 1.5093639727449693 0.34751640031800335
C 1.8371276183790552 2.6856462870484004 0.8599489627775972
C 2.5395235355670756 3.400056843918188 2.028587749930205
C 0.43128075334300214 2.217958638222344 1.3189598948462622
C -0.4903818823337466 1.7002674707774774 0.17970460140568822
C -0.5530551133215713 0.170259972351129 -0.08478968070668773
C -1.4962137241638285 -0.4818858265491861 0.9438898741754161
C -1.4123866889597518 -2.0253287753645046 0.930190477594652
C -2.594554297316516 -2.678511546295275 0.19702894450406852
O -3.8217653965914735 -2.3807939588690807 0.8425607364310351
C -4.1330580236624375 -3.343746044466574 1.8357944623482294
C -4.852407874865279 -4.520812345742451 1.2307305659689978
C -4.253689870173839 -5.792422021832528 1.2146274199381797
C -4.930451186453237 -6.882770829965268 0.6579058504841941
C -6.205994797572301 -6.711317340593418 0.11092479723314395
C -6.805117501165544 -5.448393045811667 0.11897789171882915
C -6.129372294044377 -4.354656708864522 0.6724680720142224
O -1.0405876233576439 -0.10876505207715474 -1.392910692126074
C 0.020340748886243442 -0.4290030131791311 -2.267649142958058
O -0.4017461217630436 2.487001244996314 -0.9898390399589049
C -1.6526018508798845 2.503885077664053 -0.3335457854111057
C -2.0206934162846495 3.8708540333093024 0.2920008158564503
C -1.1338651158871476 5.060227572418863 -0.11447931626035644
C -1.2207712741278967 5.34284661069038 -1.5833863576922511
O -0.21714121207175455 5.144365876879132 -2.3209179188445788
O -2.4203321069415824 5.8142541876641 -2.1229725263941983
C -2.579732453237888 6.087409315796066 -3.508814521240771
H 7.394528709886472 -3.982415905925579 -0.6088379236415039
H 6.050360054884473 -2.8169384873799417 -0.8435137389719403
H 6.451444699657718 -3.4451810701283536 0.817678632201825
H 7.820818297099624 -0.36071302206666594 1.163617448826359
H 6.205060183473795 -1.0892507495846384 1.0180134928128612
H 7.860955032257914 0.40053171587964564 -1.1247322529647021
H 6.415926625733608 -0.5378060304167621 -1.5859653214364662
H 4.444520411072044 -0.09466900173992537 -0.18883262098034423
H 4.5365880408304955 0.9588790432618313 -1.663597066760427
H 2.7225960799891484 0.7153085406461467 1.1284154648823017
H 2.2213693737515277 1.1039757556053071 -0.5753351506921319
H 1.7337710025726336 3.4226606091849865 0.03376388070243031
H 2.7060832916488433 2.695236103541138 2.87270431210816
H 1.9230676667867603 4.25221546215326 2.3875946273690363
H 3.519513508080754 3.812017963849954 1.7074280839198466
H 0.554990066419688 1.4090753953860193 2.0678859097404416
H -0.056931190424306916 3.0404701391919664 1.8700007582523674
H 0.4599054962474964 -0.25814513688939067 0.09897509347961389
H -1.2204406134743124 -0.13559720743547587 1.964930035809006
H -2.536621245148804 -0.13473900379446016 0.7628563010560931
H -0.4628815124051289 -2.3696597314403722 0.46030560478408233
H -1.384740272683909 -2.3902156283800364 1.981110983162797
H -2.4167479418054443 -3.7732459392532425 0.09349452300441355
H -2.6442049904949245 -2.2798704253290194 -0.838849963943691
H -3.2394675906409476 -3.670902814341873 2.4140348197410053
H -4.811656440221398 -2.8661402333335917 2.5739485766825436
H -3.2679964424687107 -5.942129552352444 1.634451512475297
H -4.467688511331046 -7.859675737887717 0.6546064530652084
H -6.729362701773031 -7.5568343671017715 -0.31612883404973907
H -7.791913710108805 -5.3152895215913585 -0.3078992006824084
H -6.600388520425254 -3.379695696757069 0.6706533896428918
H 0.7574754201557177 0.404013216037064 -2.3270905508912363
H 0.5206508213875295 -1.3744039133733246 -1.960505379252428
H -0.3895828747244254 -0.5834995561323213 -3.2876020102074572
H -2.427867918444462 1.981059827984434 -0.9333769862045448
H -3.06408888737367 4.103026651078699 -0.010226303488111
H -2.063049156449746 3.785750214515649 1.3971095228095067
H -1.4789807142179086 5.9639770110346255 0.4329402174798093
H -0.0822841783782255 4.883545587090703 0.18909284107391067
H -2.4385364592662704 5.157232580594985 -4.097482044746034
H -3.6028076711755253 6.473422787443871 -3.6898724381246994
H -1.8452749050178383 6.854803628033792 -3.8307310918368866
