42
016097
C -4.99045482850961 2.0220700134128733 -2.0899345722790685
C -3.8245466315291017 2.5254977900340267 -1.5063126875799109
C -3.232363735624572 1.854232604891939 -0.43194330508766016
C -3.811859232011276 0.6785753706794281 0.07366493108012773
C -3.149861592474959 -0.06182307720451825 1.1990571929811151
O -2.1200526181383745 -0.8659568527435851 0.6668833295291189
C -1.461279235913665 -1.5487493265031858 1.7113067644543192
C -0.29605288707112726 -2.3455157069366432 1.1194462938113199
O 0.8494807118437202 -2.292135035913271 1.9400804108653191
C 0.9452491465554692 -1.6414165107292262 0.6908724953574938
C 1.0328369294207247 -0.10673051261596388 0.8437259274320369
N 2.329051593555137 0.44231517460826286 0.3962646677935759
C 2.474384364809349 0.4415296548040563 -1.0763637658983412
C 3.8847026438603423 0.8777040693276869 -1.4813153408870317
C 4.9564481500385895 -0.07649838705171107 -0.9227971210310842
C 4.47057779595287 -0.8853431085338423 0.29139474480670285
C 3.4973177305810914 -0.07231267344548804 1.1581008404383186
C -4.973907610172891 0.16879565623947543 -0.5295029442319463
C -5.563149854569815 0.843518813178449 -1.6035491681992802
H -5.446843277675057 2.54196750654447 -2.9223242679994192
H -3.3771953848155283 3.43369967330001 -1.8890902119352122
H -2.3226237819913984 2.2482711579315064 0.0044941317053856485
H -3.9036596370291163 -0.6873325022693655 1.7305125346163426
H -2.741728431515582 0.6816744163285524 1.92220296336764
H -2.154738059985242 -2.275273083207896 2.190521049916736
H -1.1000606217839344 -0.8463765181550714 2.4970792945108373
H -0.468845876796156 -3.363401251527994 0.7110126125307553
H 1.596421862923575 -2.1934298660337492 -0.016273628423094495
H 0.21390609561033055 0.3620884648453048 0.25607854851636513
H 0.8736662165140052 0.19422999970758126 1.9021772123310325
H 2.2675775989730056 -0.5629473903343356 -1.5046920569915363
H 1.7446629323668932 1.1556334110625652 -1.5160061498971442
H 3.9596135586658385 0.9189141214120943 -2.5895934999411403
H 4.064429578103219 1.9040821758822966 -1.091940910664348
H 5.272418457948594 -0.7863611430558908 -1.7180934839221258
H 5.851522728224405 0.5173922453193815 -0.6352879552087461
H 5.3444061860256245 -1.1962840569855475 0.9038089976472807
H 3.9640058045048145 -1.810110747168867 -0.0581759533678637
H 4.045501929975188 0.7976887418115695 1.5790318189516461
H 3.184980336593504 -0.6931756632926824 2.0269534380160596
H -5.422407916673056 -0.7490332542289659 -0.169888102301504
H -6.461531138765831 0.45032560661627047 -2.061585074813071
