66
017113
C -3.088908695306392 4.493838551574168 0.809008081168549
C -2.7424415176618204 3.1689027038363164 1.4687786730132526
O -1.7767144433588695 2.481636277947131 0.6805103103353425
C -1.1990956316471313 1.2716096557788072 1.0796452657778612
O -1.5627940629497954 0.7317680906793902 2.1600370077521776
C -0.0861942600443277 0.654891769234314 0.2526163427030753
N 0.22025404971122445 1.5462755851038943 -0.8886734044774133
S 1.3989338314187176 2.7525494485248974 -0.4548992191064606
O 0.9975082693404491 3.4433021092267504 0.8193258362341496
O 1.4807175179475713 3.7800211819224825 -1.5483925579313247
C 2.9744268030842202 1.9894369212148162 -0.26230137988714225
C 3.682230371784335 1.5634330484526022 -1.3935698357411455
C 4.9119570137861315 0.9142441821712785 -1.251722390911565
C 5.438558662786596 0.669131421960161 0.02547280269228222
C 6.7717286194286705 -0.0009622136750182047 0.17671981410329352
C 4.735871234727311 1.1108115866755641 1.157109272947429
C 3.50614770991903 1.760557323841312 1.0141358247048213
C -0.3804948792389579 -0.8297262211067822 -0.2284855820679398
C -1.486398378155371 -0.8887397621373311 -1.3456776811081594
C -2.7556350931203464 -0.10686805026479182 -1.0864542545593667
C -3.741047681426851 -0.5956323110076435 -0.211736867544997
C -4.925617110134862 0.1189017823155712 -0.009250495271020787
C -5.146576250254313 1.3177238724636195 -0.6908122833150524
C -4.182529661806104 1.8042628132802936 -1.5763383356009486
C -2.992200436174681 1.098523066670089 -1.7736717693583643
C 0.894076478729772 -1.4365338976830682 -0.8052966937332889
O 2.0223074280107625 -1.113333556054512 -0.3379042687573981
O 0.8103124526730129 -2.427544190047213 -1.7934192514632525
C 1.9421788227075656 -3.133215099520983 -2.296920277007428
C 2.4169980095623 -4.1739681635072055 -1.2892921497882963
C -0.7171157753370475 -1.7420048042034455 0.9417376832680853
O -0.1215077768740252 -1.5882422669945784 2.04495873193486
O -1.5499096609707885 -2.8532791242117725 0.7545256112826197
C -1.8432973320136348 -3.7988384886033897 1.7815835246848422
C -2.8233909405160684 -3.216031502005368 2.7938071733070156
H -2.1773519445814915 5.123057987757228 0.7241448587990637
H -3.5039581446942405 4.319231258180418 -0.205184518412176
H -3.844386448251057 5.0305172660815884 1.4207282661575895
H -2.3293815058683616 3.365517704815668 2.4820703916602005
H -3.659877151334174 2.549124438849254 1.5640833455775862
H 0.7894190389460216 0.6078138889467828 0.9382933809335595
H 0.6469172867350464 1.0112683562517655 -1.677885167792105
H 3.2771846394695356 1.726478837044392 -2.384610970427601
H 5.4496827729285 0.5969374730580067 -2.1366419746755145
H 7.5736732685938195 0.7661306985533086 0.16803340822357868
H 6.820554449490964 -0.5637560783799138 1.132858344829494
H 6.946331172312662 -0.7174453553525729 -0.654362946950786
H 5.1366646461967695 0.9459955884011635 2.1497116303800787
H 2.967625427850448 2.075430832049008 1.898315585468079
H -1.0484742096520285 -0.5317108772978578 -2.304234044090436
H -1.7687429913152248 -1.9439497679373696 -1.5532944820785657
H -3.6067265642340067 -1.5337302710037721 0.301387707716138
H -5.677124243390275 -0.2623393280986455 0.6698195635148271
H -6.065317984785213 1.8679992471910858 -0.5346589464122599
H -4.355368329797672 2.731183816856537 -2.1079069960810832
H -2.256032569624883 1.493175719801579 -2.4628894118525184
H 1.6462127447487402 -3.6522291296328815 -3.232831226344008
H 2.764777421748189 -2.425103434183073 -2.5389294954697124
H 1.5825796761842734 -4.85942333504724 -1.030320073680094
H 3.2472925614657675 -4.766707313697919 -1.7270646660073188
H 2.7821579852934497 -3.6798398316017544 -0.3650754623344147
H -2.3034848525772897 -4.695345038947071 1.3160511900546676
H -0.9077959125556487 -4.117599363918429 2.2898719822492546
H -2.3975341685984732 -2.3096810163975463 3.271904118646927
H -3.0353078032408014 -3.968644500066938 3.5819579508326527
H -3.776545956089626 -2.949260214125159 2.291505399285803
