89
017336
C -1.5850298557731934 -0.769753657631047 -5.442308587163707
C -0.5114582865066599 0.2692095703214898 -5.130815613384205
C -1.0300214428136025 1.4270032644013242 -4.262079842319167
C -1.45765812451358 1.0223413386044156 -2.8396317031331577
C -0.3286938379040864 0.34088161966056046 -2.042260509100371
C -0.6060368174585217 0.3169854483848749 -0.523294086732753
C 0.42269963193909693 -0.5672960120334832 0.23892352674559408
C 1.9383082815523704 -0.31294684627422076 0.030644452389838723
C 2.452742207155494 1.081837156606394 0.48437012608663804
C 2.038218120462977 2.2595531257088566 -0.3529888146272721
O 1.2463823294566845 3.117477495357036 0.12603109516204714
O 2.582924301760378 2.4430411367663525 -1.6263025155670263
C 2.2333454686774834 3.5454898065973772 -2.459500815356894
N 2.3617253117940424 -0.6943555908750167 -1.3342163535143552
S 3.4468857178102654 -2.0552085409010363 -1.317321060836411
O 2.785759740071141 -3.230241372561623 -0.650644469768533
O 3.786630322812599 -2.437477356063887 -2.729280294108627
C 4.92380682743715 -1.6115739898025863 -0.46397515717579557
C 5.132167186675393 -2.017666611251176 0.8618796192812348
C 6.280028471535731 -1.6111784221238912 1.54949157547957
C 7.238759360862379 -0.8070393437037449 0.9121578868828358
C 8.445416327142885 -0.33102189601990945 1.6622181721795501
C 7.0170815970089615 -0.3855515782138762 -0.4072020311153272
C 5.865319856524494 -0.7865013950853179 -1.090543258430281
O -1.9264509264556307 -0.16781381164536707 -0.353546879922814
Si -2.6144688419591704 -0.03304594573845157 1.2493105506468893
C -2.06614841605098 -1.5522850551840548 2.191657235608639
C -2.0788074259776286 -2.7819093950133094 1.5087245959392936
C -1.7545292479582855 -3.9682713272756387 2.173008160858278
C -1.4162461457342783 -3.939088851717763 3.5270500302952006
C -1.405319825593232 -2.722846051566288 4.218157898605322
C -1.740858165490281 -1.53541366628085 3.55956582336359
C -4.433445163112347 -0.2851511757651759 0.9659074023184123
C -5.030138823176968 0.2202217023887427 -0.20087538590158413
C -6.39889389061625 0.049957467709165974 -0.4211486778660646
C -7.1793548221855925 -0.62345151664141 0.522147947879772
C -6.59490853239428 -1.1176605215420892 1.692043090554793
C -5.225599193474743 -0.9448713615654044 1.9186036166215188
C -2.460212580044145 1.688628599479442 2.110027412191316
C -2.823310631464942 2.8007148841838267 1.1039494453556176
C -1.0433775227803104 1.9402342285847152 2.6607446659368374
C -3.464364356623826 1.7659603397425891 3.280704296176204
H -1.1814220886171765 -1.5030554348282787 -6.169273877660984
H -2.478066787969789 -0.2816244009346674 -5.890089137429749
H -1.8790134508150953 -1.3223311620862988 -4.526779739387952
H 0.3601278525294169 -0.223809572526578 -4.651189546703378
H -0.1530324286047203 0.6954367726726443 -6.09075822082368
H -0.23157238650249343 2.1968786938765374 -4.186873025095249
H -1.896222589950137 1.905120802079296 -4.769954272882453
H -1.7793005134246351 1.9461741757122557 -2.3095801281666395
H -2.340896429653046 0.3521243565712877 -2.888799845587004
H -0.21168632165950257 -0.7033227495242879 -2.407373739945831
H 0.6067019039567114 0.8976298547742536 -2.2409257979180084
H -0.5360863863816187 1.3553413398307015 -0.17483381564132522
H 0.23765415354663966 -0.4605360239526114 1.3258622565218923
H 0.21537927695800838 -1.630424644336452 -0.007207852059615758
H 2.4070208959732087 -1.0007395561160357 0.770958302398027
H 2.1329781453503998 1.2529111624681033 1.5360505603841894
H 3.563803209795103 1.0544123330760424 0.5020400789671693
H 1.1296525766104615 3.598867169559697 -2.5774743712044668
H 2.692748587009551 3.405116510270435 -3.459152325474711
H 2.6101463695475604 4.4898817117803445 -2.015426218249966
H 2.890581899778095 0.0770835987742501 -1.7949443997188754
H 4.400352565140692 -2.6341347875810293 1.3694591959594502
H 6.417022571358872 -1.9188012694674321 2.5798118034520843
H 8.753486281194965 -1.0776579763904623 2.4230243997501457
H 9.29779067783562 -0.17424976409156476 0.9708271619860182
H 8.210130686441275 0.6264854397743103 2.170541957041485
H 7.730918598341762 0.2599838566219452 -0.9034446653938265
H 5.702742166718417 -0.4436614517696107 -2.1044664107174063
H -2.3609690330414734 -2.8268899276287494 0.4655589278749475
H -1.7764781298609549 -4.911056343223227 1.6394490837106415
H -1.1664747963216018 -4.856124643078822 4.045349690268097
H -1.1479567001643411 -2.705382282155696 5.268503655237251
H -1.7512192102332684 -0.6254608540720585 4.129816640678548
H -4.437523831751532 0.7442936976322853 -0.9407972986191918
H -6.8556227891075086 0.4418974917514874 -1.321945889608938
H -8.23845765429842 -0.762276183377632 0.34898866353183533
H -7.20336234576274 -1.6317036169258523 2.4242445246843785
H -4.791372635241379 -1.3237480124252572 2.8351476313020534
H -2.744397516168724 3.8024113270903452 1.5819063077073108
H -2.1525348056807756 2.7963026239228332 0.22243479821582038
H -3.866848559272643 2.680367158866783 0.7430708258002076
H -1.009361563181691 2.8979375124755054 3.2262668801312246
H -0.2957522129221376 2.0221103842239896 1.8572807194839531
H -0.7151499220839164 1.1356849327463714 3.345541273687142
H -3.3904719808308195 2.74597411066212 3.8000738658669624
H -4.509866274006011 1.6639192541419805 2.918788513290854
H -3.280987259195592 0.9727284931162481 4.030910289822918
