34
017710
N -2.809616323083041 0.022580167702760882 -0.9734958523549532
C -1.6089712093503972 -0.765273589720448 -0.6770814259430877
C -1.38323266867446 -0.9518471715546251 0.8919065522326598
N -2.457865141721078 -0.34929095556125017 1.6900990866412893
C 0.02186915349835961 -0.39117063459225276 1.3077293740789317
C 0.0746116272881125 1.0493509410302768 0.8225726579952913
C 0.27789201523894197 2.1649705743490495 1.6387389135337134
C 0.2828464250631718 3.4418908655690634 1.060942424805097
C 0.0825705362226174 3.5982206685415083 -0.3204789549174034
C -0.12425111573849518 2.47923213077913 -1.1387675172645342
C -0.12554127788126396 1.2061292646204604 -0.5633767052986978
C -0.34738613063442864 -0.09463865453933447 -1.3188746650531364
C 0.8288618704619795 -0.9833305141413793 -0.9441307105409192
C 1.6709362671755714 -1.6282303832255276 -1.8535684172301081
C 2.7149157439340383 -2.4281632036185323 -1.3689443091276592
C 2.910323204445261 -2.582385973335202 0.013449937270383955
C 2.0638398812118584 -1.9384266912975907 0.9263319881043357
C 1.0253151837879821 -1.1380994559967337 0.44376083227016755
H -2.892828992361624 0.11895626804645655 -2.011734871532606
H -3.6440114425224386 -0.5318212204484775 -0.6725190290121487
H -1.7316047031285804 -1.773512576893642 -1.1379375752372263
H -1.3878504558717382 -2.045300552661083 1.1055099753041324
H -2.284185490283894 -0.5656725546195809 2.6985568145605274
H -2.4369172059097552 0.6911385173636153 1.5897426695736552
H 0.22613137345165435 -0.49579528493498953 2.3956821432953377
H 0.4263854302958918 2.048192945654848 2.704445817738013
H 0.43933345865090045 4.3130625022673925 1.683714998361991
H 0.08608142682525358 4.589101325347338 -0.7557037877454184
H -0.281986515188489 2.603335657811672 -2.2023321945340033
H -0.44440769884764836 0.04909392830699214 -2.4172780457931045
H 1.521517871792408 -1.5141774083496544 -2.9194666598309778
H 3.3736649691549383 -2.93157030287431 -2.064595856276191
H 3.718570020536771 -3.20401057541254 0.3762415185710154
H 2.214989912161619 -2.062538053613412 1.9908608733556352
