35
017852
C 4.938379591542769 -0.3679067664927245 0.3906150340082247
C 3.6736798122389445 -1.1152525021306077 0.13755804770472937
O 3.723105917088197 -2.3129681759311347 -0.2540649168602005
O 2.4464580502864277 -0.4935076611928683 0.38160991077491074
C 1.196444235747082 -1.1494009862765397 0.17983024913467646
C 0.02047425343931466 -0.2047902509704064 0.5530620466679977
C 0.16807421747836532 0.16231854742269267 2.0551046233564696
C 0.0007514797993749108 1.0478633253521263 -0.39269849656884537
C -0.9907150437517573 2.116422287784612 0.11441957930099275
C -2.3557017233835147 1.4443676546816924 -0.09940218056870104
C -1.9765831329661068 0.12036623902794992 -0.8041034983341936
C -3.102922277339964 -0.47400702983525883 -1.6562987762376735
C -0.761927953968459 0.5388209238979752 -1.6033288981634881
C -1.354362799544543 -0.8740499568456432 0.21338009873792857
O -2.1723623520586868 -1.0530106497186265 1.3436921347365989
H 5.699480553372663 -0.6372276088114182 -0.371792900474158
H 5.323049427657839 -0.6232339432914701 1.3997410794290752
H 4.749715267119714 0.7248942658693616 0.3383140192420773
H 1.1550747011450218 -2.0627355651799024 0.8139766251590139
H 1.1315974617593099 -1.483031784864018 -0.8766280485837828
H 0.32893519046230385 -0.7527826941050276 2.664661541349475
H 1.0358722859243037 0.839694265515304 2.204222241624404
H -0.7371206353994504 0.6573742958028669 2.461872814792259
H 1.001846460884694 1.4660354744480972 -0.6338407189456924
H -0.8230479821268459 2.4339423357665266 1.1623014482971332
H -0.9125031636448869 3.0277822369415466 -0.5200422097292703
H -2.886088725258219 1.2806398313592686 0.8628142428151574
H -2.992308245278154 2.079156683402562 -0.7552969274045206
H -2.7554882960246165 -1.3966316986057876 -2.168037353798333
H -3.9737938539331066 -0.7250150060914718 -1.0151247117138174
H -3.4291939906705857 0.25530761376774586 -2.428098078717743
H -0.26960929192404887 -0.3066891102859357 -2.1307849986971665
H -0.9818709567821498 1.3393048824671805 -2.349083384504203
H -1.195146986210285 -1.8626214984564262 -0.28203252495640907
H -2.9221914956809436 -1.6394279744222402 1.0634828871270727
