68
017899
C -9.402047792985758 -1.5786211590050316 -1.4687544171503857
C -8.667763648704792 -0.24129757171065336 -1.5120870603063763
C -7.1665823405221385 -0.44157271016677935 -1.7591413803149472
C -6.414057649596762 0.8666070229131723 -1.7499803611560854
O -6.954444004307085 1.8933924207381103 -2.247045695443687
N -5.0727826741226085 0.9563161585828086 -1.2276666874702853
C -4.583054314438545 2.248758100562525 -0.7333034779717099
C -3.409504374176805 2.0581584363164844 0.23258183498610166
C -2.2323772728269784 1.2669269166756318 -0.3982759485902484
N -1.3078403811169346 2.2152739653630307 -1.0568967910126106
S -0.10731858560800439 2.855873692735505 0.047277313671124484
O 0.38119817269732426 4.165168655434402 -0.5046420201052336
O -0.7593977025133609 3.1039907545280907 1.379577933997793
C 1.307033329667395 1.7955140497442572 0.2970570053296775
C 1.5291363700029674 0.7334766925607544 -0.5895497591867681
C 2.5648157351745793 -0.17198331578317924 -0.38700048869309583
C 3.4371144519528722 -0.03338953617575905 0.6962444207304066
N 4.459998706924975 -1.0211721403379845 0.9104974183729568
C 5.365681909166251 -1.4456887309737474 -0.12164573990069717
O 5.292491767321356 -0.9443491149717944 -1.2760840219478256
C 6.367463314832895 -2.5008330056559056 0.13947307664636474
C 6.45051749963442 -3.5846379303053784 -0.748631850237339
C 7.37448772734102 -4.606500764724565 -0.5307467125856702
C 8.221718641698743 -4.536267672501985 0.5728361772232547
N 8.153297210335852 -3.472671611934455 1.4153530841273165
C 7.269768467895238 -2.4516938167472753 1.230866718129622
C 7.307706096149498 -1.3032280190063203 2.1963751004764887
C 3.2793559375779715 1.0588398804989703 1.578899143465324
C 4.1753964952261695 1.2545999793835172 2.6503405217430545
C 4.052919706765468 2.3611467541541526 3.487280220166661
C 3.0505256104865537 3.2984619161334283 3.2629762802378814
C 2.1507419381208557 3.12892020725913 2.2111421890129135
C 2.2272120432308093 1.9998171835526863 1.3645209380848948
C -2.738244470126412 0.17708315928468618 -1.408355082775318
C -1.8494330536074612 -1.0744688997596983 -1.3866305687614546
C -4.202991820315147 -0.22666143641916667 -1.1527073557944343
H -10.484157395539153 -1.4028829555001245 -1.2916354560514203
H -9.005871112598864 -2.211271806361784 -0.6464205819536628
H -9.282502305579014 -2.1141906121869423 -2.434261871713199
H -9.105647769529787 0.3783410424601128 -2.325775529985154
H -8.8207724113128 0.28570949405089796 -0.5436348511297854
H -7.009219640182871 -0.9355272499377658 -2.742964889950246
H -6.765650236353758 -1.1047295593466997 -0.9626029552518593
H -4.272683797948782 2.88164791488086 -1.5910297820401564
H -5.395676840874363 2.7727606166754297 -0.18491679568175495
H -3.0837906813866947 3.0584320077160236 0.58325245060222
H -3.7769955740514147 1.5058621748113352 1.1252968809956707
H -1.705383196317731 0.7482602570339935 0.43568189619554143
H -0.821411586901028 1.785538862818267 -1.8728312011498591
H 0.9097251347887642 0.591056033972652 -1.455094919744359
H 2.67280221735007 -1.00420937835953 -1.0715525152270717
H 4.512180488833689 -1.4789212484847598 1.8483619620780398
H 5.786644426648495 -3.6477613221444716 -1.6022179988671792
H 7.429572207359183 -5.447959539136483 -1.209751294235856
H 8.941699091909044 -5.322945413817611 0.7561551715946011
H 8.313066683923827 -1.2305530790603223 2.6637365693373236
H 6.563784141811498 -1.464047058873045 3.002745940789641
H 7.10687368616241 -0.3430898258424521 1.677607303656994
H 4.987478296435163 0.567986015569164 2.840687831378765
H 4.751836914784318 2.50243418645278 4.301622455616433
H 2.9755825214634526 4.16873856853598 3.9025570618441736
H 1.4229792036357676 3.9104162639780835 2.0602605930800038
H -2.706046665151914 0.5946062461191647 -2.439952775648187
H -2.220032204175214 -1.8231576980241468 -2.119185597855074
H -0.8109234268007837 -0.8204502333351859 -1.6692564654427802
H -1.8480758302810645 -1.5347149819455 -0.3746162544966277
H -4.503301301246716 -0.9703258726397239 -1.9237599041675266
H -4.306824086108135 -0.6983403603198558 -0.15065843357530756
