48
018142
C -5.778732696620852 0.4901268633112684 0.7370658374850919
C -5.332593618405391 -0.07764439467109834 -0.606026770483286
O -3.998952443191197 0.3311904158489601 -0.9106808667475131
C -2.8303480331659947 -0.18913922923558674 -0.3296563941495347
C -2.84112385598905 -1.2811064603515117 0.5523818236789076
C -1.6453819645956425 -1.7790138858695674 1.0669345345972017
C -0.41816029192668824 -1.1921873705405273 0.7269089408407975
C -0.39377485823770925 -0.03896416170663689 -0.09893861291978258
C -1.6099746509231603 0.4058521759374929 -0.6623826239349676
C 0.9403381693777413 0.6029846689324285 -0.5318878588646044
C 0.7927167352394456 2.1693651285930846 -0.6191481734440435
C 1.9527509185071354 2.9471200808039657 0.021107709172949306
C 2.153881473962236 2.544735446339019 1.497480658199373
C 1.9901176857256409 1.0287960027231426 1.7549854529988975
C 2.0895698472399578 0.23100225302218702 0.4412016902537787
C 2.132631939586663 -1.2955187340795544 0.6130835535447919
C 0.8433882611731693 -1.8183568335544138 1.2717729427241546
N 2.381304198155821 -1.9814108639533208 -0.6881240389442167
C 3.804660114813864 -1.964894845579983 -1.071106846592096
C 1.514070493728399 -1.5378074576711773 -1.8115816797640731
C 1.3349133972539236 -0.0023415750440602084 -1.8995955288909352
H -5.711180405004551 1.5984429700429494 0.7192970664862615
H -6.831447221519659 0.19750854992533387 0.9342649858765215
H -5.142102548595555 0.10341995013409393 1.5589790103250156
H -5.422225076753916 -1.1843916200826898 -0.6213189985912427
H -6.00662592025979 0.3194377195361539 -1.3939390718866862
H -3.762726627609168 -1.771229051259285 0.8309085603172707
H -1.6740113322911516 -2.6412319992463207 1.7223035537462306
H -1.616543016140866 1.2208605466301536 -1.3749413864136184
H -0.12245504486131081 2.508398398686269 -0.08565422032746912
H 0.6799565035780842 2.497557383972663 -1.6755286212558083
H 1.7442678631069004 4.037518305568602 -0.03601883791941947
H 2.885073062711739 2.7623604123922636 -0.555588448281238
H 1.4246748094918582 3.098288182667254 2.1286654637310924
H 3.1706522187875756 2.8655618757322316 1.8122823672746986
H 2.777031734825973 0.6894431813048997 2.463275560895016
H 1.0052054265956616 0.8478906180633682 2.237236958801889
H 3.0673927779458303 0.5181058847162228 -0.0051972715105215615
H 2.9590321362441743 -1.5413482283019584 1.3187654353890506
H 0.7977432283451366 -2.9225887222672835 1.1465715319460492
H 0.8844364012672828 -1.616385539729235 2.3642975947557883
H 3.9752995517537095 -2.6660733693780183 -1.915647731665198
H 4.13269294411359 -0.9509345231643052 -1.3822393341770984
H 4.4423219252913295 -2.3152265195296895 -0.23166602871362907
H 0.5203695891219713 -2.0219032598440734 -1.7075158971679234
H 1.9095299189787835 -1.9065805655400028 -2.7840462434576168
H 0.55257477028843 0.2224075441002124 -2.6575388616470486
H 2.2797615088796332 0.45790465161607574 -2.2638008852912557
