50
018581
C 4.386876154362808 1.0840093337040853 -1.8629079514556464
C 4.328362201818122 0.5219684440696822 -0.4650868759130567
C 5.0945870282401104 1.1434183197143757 0.5378340953978527
C 5.0794259669916615 0.6642406201752284 1.8467691386158533
C 4.303097336777611 -0.44311532310398605 2.1747450111656903
C 3.541217649687119 -1.0796660781196243 1.1952516006449379
C 3.5434589440454385 -0.6216677724974325 -0.14108302717191618
C 2.662709037785795 -1.31732996535682 -1.1892445342412343
C 2.7598406859813363 -2.845266853833344 -1.1215524534501582
N 1.5757376643165326 -3.3594413149336653 -0.4224253265686873
C 0.6544860898807285 -2.239135154847037 -0.2173252278883823
C 1.1627460576018844 -1.0560372099351958 -1.032343272039072
C 0.7709576651185295 0.30498843899720257 -0.42712674079171886
O -0.6339965947349318 0.46471475166181603 -0.516261524671922
C -1.1847119390658458 0.791838324078839 0.7409277460234284
C -2.6754301748066154 0.902582354171923 0.6016611790027357
C -3.277057982593572 2.149483798041482 0.3784979126466466
C -4.664246899338406 2.2490770016054564 0.18146801414490166
C -5.309823506136634 3.5982482162306626 -0.01812534344591391
F -5.625822579272311 4.1380561200145864 1.2146482659872855
F -4.450514685359147 4.458269580678875 -0.6801871827733081
F -6.466644171377547 3.482542701177515 -0.7694449071599421
C -5.451904152201661 1.0871193899076774 0.25652607402227035
C -4.863467294941017 -0.1675602319892148 0.49028912917197154
C -5.710643498336721 -1.4160216843596376 0.4962614655392807
F -5.839460742917873 -1.8844652480920736 -0.7980727469633819
F -5.129487405064534 -2.401281683582492 1.276369583312727
F -6.969218028831433 -1.1483032925171257 1.0066786302201023
C -3.4682524060577826 -0.2537919091995171 0.6268232616043251
H 4.877392207045358 0.35300516248382924 -2.5395719237466037
H 4.968172495505079 2.0300629312925236 -1.902872805958513
H 3.364308001252352 1.3081332271959478 -2.2312881895484695
H 5.706273441732738 2.0074689022689967 0.30891339119319694
H 5.670577520456767 1.154823755171848 2.609188073786364
H 4.290616066917666 -0.8109846827464724 3.1928920269824315
H 2.950024570343021 -1.935408957537087 1.4884025836032002
H 2.969021661776345 -1.0149671130379185 -2.2120894348609323
H 3.6814013405023833 -3.1857694370699616 -0.6022079491613515
H 2.7973913958044165 -3.2578809351244415 -2.1566722182254243
H 1.1074655256831292 -4.068135538567138 -1.0351903396731286
H 0.6328276895561263 -1.9951491428630077 0.8664676393239225
H -0.3811184471278241 -2.5092858853733424 -0.5253382210144312
H 0.7030592681641522 -1.1223637672222457 -2.0460475277196126
H 1.2425076133597353 1.1108321917650992 -1.027266086199462
H 1.1780761938349156 0.39154646338429366 0.6091631014466297
H -0.9533945909288382 3.5229447412926075e-05 1.4907289091263165
H -0.7661000024592707 1.7564957282865807 1.1102953950079908
H -2.661719928376065 3.0412480716630856 0.3518460399820316
H -6.525114916238134 1.1580015036909603 0.12820208378903966
H -2.994487528375699 -1.2191813789712014 0.7588814589011355
