52
018708
C -5.413727367915297 -1.0013857132972854 -3.610779777303755
C -4.440378037863506 -0.5232449452205551 -2.5740923507800644
C -4.45713767213225 -1.0745267547333406 -1.2859415753926784
C -3.525457497887849 -0.6625134199418954 -0.3293632946448897
C -2.5580883895030673 0.31040937005233077 -0.6411212275459329
C -1.5298947463004235 0.6918834736658357 0.41282107640290366
C -1.1581299474381719 2.1950543187996274 0.40167998055974546
C -0.2809215490448234 2.549752363381578 1.5888503293395744
N -0.808704685761185 2.8700792663792445 2.7326203632205526
O -2.168742335939042 2.979699714737624 2.912088187287632
C 1.1868761885338832 2.353376274269678 1.5133673720002596
C 1.9196909100745783 2.7796163767648143 0.3933595549746513
C 3.288721453044817 2.5119720736555915 0.3213760082172776
N 3.9068464787823993 1.842268582207864 1.3291509300455935
C 3.2274606751443025 1.4277491887924751 2.43113214455833
C 1.8601110465847521 1.6837239180226913 2.548406833331371
C -0.3024720095360663 -0.19653625970685767 0.303843991723117
C 0.5476252091638868 -0.13026021126195145 -0.8133367246089067
C 1.7258964849430691 -0.8785347301726391 -0.855770129883756
C 2.080733325988217 -1.723926585959253 0.21264343520678597
N 3.315224785755256 -2.4821671894091373 0.1804809561129085
C 3.437076433387823 -3.7376852855932885 0.9302606203087267
C 4.464756962319021 -1.9962525599660352 -0.5925740591919596
C 1.2115429630965096 -1.808608086264214 1.3172639362480212
C 0.03656890377031648 -1.0545935406687998 1.3612215658980422
C -2.525292186758753 0.8343937301800973 -1.9496565885304813
C -3.4578072831771274 0.4197556896005531 -2.9048017461223155
H -6.3935735519647725 -1.2367087173769653 -3.1444465921051012
H -5.580160252459583 -0.2232768698110179 -4.385644208799684
H -5.0152175269255554 -1.9157134725806368 -4.097181396899743
H -5.188965823784807 -1.828615982192736 -1.0225276553192955
H -3.554604588724142 -1.1114698451740084 0.6567796250306419
H -2.008202265715653 0.5186186299806066 1.4043934696764773
H -2.087189469311676 2.804964660271163 0.42291157091507275
H -0.640551927674081 2.4637186558541004 -0.5383893504945574
H -2.540444313686756 3.2270326950412196 3.82029283182957
H 1.4470865258442165 3.321415008911317 -0.4150674666991725
H 3.8591475986262833 2.83155476624519 -0.5420500973365131
H 3.7482359188783376 0.8931623577796244 3.214312909458015
H 1.3248702564668073 1.3294342844482112 3.4208444064376997
H 0.3174522982427224 0.5216715999065912 -1.6439139254315063
H 2.3562261720309126 -0.7921127235063405 -1.7297666137820669
H 3.5299098002406004 -3.5229297028803983 2.0149115877643116
H 2.5444278170246366 -4.373298580070576 0.7504599001092331
H 4.329885827437619 -4.316062034284006 0.6113465703078947
H 4.2782123326339745 -2.1411613005701873 -1.677802318679808
H 5.3948250680400625 -2.540772154978102 -0.32204741649530233
H 4.634176565495612 -0.9173131125768743 -0.38247671508620285
H 1.448166496304178 -2.4369530814594236 2.165144129901885
H -0.5957071004764555 -1.123021101544844 2.237418007461704
H -1.7805822284309454 1.5561830847944398 -2.2456256373920676
H -3.409801739442806 0.8321538774589026 -3.9050054258022384
