53
019484
C -4.948336591734161 0.36891833774097094 3.3756304198377847
O -4.746063801266257 0.49382642452604203 1.9716866254526126
C -3.550691229179467 0.17313606231833797 1.3088983743272544
C -2.423470827849392 -0.31346383681812257 1.9961408691468474
C -1.2521639703951744 -0.6209632661795561 1.303722954159522
C -1.178875023778488 -0.4440996313181214 -0.08748139633141729
C 0.09569778996995244 -0.785090857660712 -0.8486512898515867
C 1.2971661724137244 -0.03670712890790478 -0.2694870989456475
C 1.1753200180598256 1.3288192318236458 0.050108522034766935
C 2.2544552623902825 2.0476688075249667 0.5933723910139145
O 2.1439286938637254 3.4015755834189543 0.9493975928791273
C 0.9569380570337973 4.177443202701825 0.8184563124649105
C 3.4834717530234927 1.4075141640423028 0.7912379350233001
O 4.539102744602092 2.150459923124582 1.3441918755492714
C 5.841755093032603 1.6363573310305988 1.6021398239946694
C 3.6305686668574157 0.05757499285610074 0.4268604460879623
C 2.5555031276833153 -0.661806556059414 -0.12126363974637991
C 2.749979670789141 -2.0575376260195237 -0.5727274808083329
O 3.8194716106863034 -2.6736698107173544 -0.31236817460932376
C 1.6977689206650812 -2.730793075121762 -1.4045388804973769
C 1.9267477569866434 -2.400206963256719 -2.8887515826081396
C 0.2976073795666939 -2.3300551681942605 -0.8769047160066405
C -0.8284781886741102 -3.037794212044796 -1.6534606100979508
C -2.305526427323012 0.036155789302039755 -0.7746851703683724
C -3.4920944175686146 0.3472904737468322 -0.08228146013775459
O -4.633766265007292 0.8310904636116189 -0.7410224288971962
C -4.721863948672087 1.0560658713372866 -2.144330762411587
H -5.980248098442273 0.6917292389522702 3.623175135956527
H -4.232109680810357 1.0168334593116122 3.9237597012984997
H -4.8228105621573505 -0.6896611623537025 3.686844378589415
H -2.4420602624326153 -0.4580382523033169 3.0675707558496206
H -0.39650309298275 -0.9921753094814668 1.8540808252365626
H -0.005531433474584852 -0.43319430930221453 -1.8988461882226098
H 0.23000835943306255 1.8258855717597298 -0.11889324268324727
H 0.6514613182695407 4.231289879184546 -0.24783866462787374
H 0.1416421127325872 3.7343908990816757 1.4287868551606522
H 1.1544712196816138 5.206161936676961 1.1831300667361524
H 6.466658060751735 2.4387124185933193 2.0448991217045225
H 6.314237718458975 1.3003904808590787 0.6550056613082935
H 5.783935306270249 0.7929111347807781 2.322212758926414
H 4.586760054279272 -0.432032068618642 0.5511294437498458
H 1.810278324138093 -3.8318448901019533 -1.2825097669404846
H 1.8248853563910798 -1.3119319862358076 -3.081918848680377
H 1.2115907041813692 -2.9541838803310347 -3.5306995129040613
H 2.950331584121517 -2.7109499066136102 -3.18947149329574
H 0.24168528848252552 -2.7074300711686456 0.1699360476707718
H -0.6086817727072495 -4.121929029747394 -1.75396295383979
H -1.7911312374951305 -2.9387755093648265 -1.108828198545351
H -0.9545909043979868 -2.597560573082883 -2.6649214409950512
H -2.252354492052758 0.16350197100445166 -1.847316201031124
H -3.972184726382598 1.8131130900002141 -2.4575603568445086
H -5.734553628422162 1.4378963765335935 -2.387152299437893
H -4.559337541609836 0.10518196515941045 -2.694501034793404
