55
019531
C 4.222970188657297 2.2349881502744453 -2.047366991282936
N 2.9919043334752633 1.498611293259001 -1.740991548251118
C 1.9527462287203896 2.149580229631578 -0.9831770743673452
O 2.0399775258947046 3.3827133067880415 -0.7251780754224744
C 0.7702372388234867 1.3621169955674028 -0.48674086579673553
N -0.0998972047104976 2.1912180849864304 0.34830343651912604
C -1.164737951648964 2.982722994746199 -0.1987207756549555
O -1.3013709650916725 3.0909567587221907 -1.44777217266262
C -2.1533031246661865 3.6510897310512394 0.711991976774817
C -3.4535607209776535 2.8438256814317775 0.8027955900282483
N -3.2398293100901085 1.540169513600805 1.439882834668241
C -4.27021560584256 0.5405910325109399 1.5532385403399247
C -5.599067141218616 0.7962977092663583 1.157543349513885
C -6.575869923515679 -0.19776599528351654 1.2782249143149211
C -6.240654231705441 -1.452173971309425 1.7931560707985905
C -4.927322538825581 -1.715394857346511 2.190630117522494
C -3.9469796027158277 -0.7249608383022742 2.0728010306024416
N 1.2540074806963981 0.23529875659165675 0.30509274786994867
C 1.931343973719959 -0.7754880609069982 -0.16058624297110005
C 2.345913182667567 -1.8437137071141771 0.7867041374535416
C 3.5107705873909323 -2.6009108687452733 0.554851916460455
C 3.8993622630115565 -3.5972488434683165 1.4558638681286977
C 3.136887138385518 -3.8446010108431885 2.5996018292265486
C 1.9854567291991656 -3.0939522671800606 2.846716664779316
C 1.5918426430137753 -2.0964599697577007 1.9493565674935378
C 2.2489013045165622 -0.8846369729801142 -1.614035576826606
C 2.0344770525961695 -2.1144009406177124 -2.264005474290308
C 2.3256609261897903 -2.2646213114500227 -3.6203259218014674
C 2.829788814951347 -1.189721601477747 -4.349459559839236
C 3.0428707383423195 0.04019369289203411 -3.7255036711511234
C 2.7559042116037937 0.2131923716689524 -2.3580575556406242
H 4.039282428596468 2.9402171211097574 -2.8855365342467096
H 4.563172871364341 2.803549055379368 -1.1559233538616365
H 5.039128688486722 1.5347019231801078 -2.328894574280061
H 0.18752115020735127 0.974978393968244 -1.3528018763300371
H 0.09234129720123183 2.2445965311742397 1.3757047677606924
H -1.7199779184015918 3.7818679089080884 1.72701663012621
H -2.383275324771743 4.663106828155959 0.31457131261356186
H -4.1899640296888085 3.423747732461539 1.3997585877221306
H -3.865666991723109 2.697794456753594 -0.22068662726651692
H -2.2913199833353834 1.3073743902332726 1.8139901795983262
H -5.889935117832759 1.7587643824501549 0.7589388206707447
H -7.594545249381012 0.005572220974114223 0.9723316814877034
H -6.9985430769011066 -2.2199247276787872 1.885006929555033
H -4.6683368764252835 -2.6878013589334016 2.5898486443179998
H -2.933010066761092 -0.945764124265238 2.383060508878015
H 4.1283161880194585 -2.4143934531929454 -0.3148915679064534
H 4.7956692027608785 -4.174997638432595 1.2693802912825445
H 3.4403041981894598 -4.615596097990707 3.296137182720733
H 1.3964461567094213 -3.285400575499828 3.734521073367376
H 0.6916308730087163 -1.5315377608471423 2.1580436342463103
H 1.6338186117964026 -2.9605672981807856 -1.7194016295512569
H 2.1565180364373795 -3.2162183174009433 -4.107611006182121
H 3.051236024759866 -1.3075094711924835 -5.4026428341451895
H 3.420974666836992 0.8659247926604109 -4.314754327113486
