61
019757
C 1.815830206880919 -2.4207847348564204 1.7785355347613534
C 1.7433908003917191 -1.493658496001516 0.5575816068956584
C 2.1675470839533157 -0.0600707446713531 0.889449643224419
C 1.527439519708732 0.603685368308724 1.9459669670077033
C 1.8637468950179843 1.917568230400074 2.2674486257478765
C 1.2140908660757925 2.5554381078517854 3.3353863236644004
C 1.537627467522091 3.8658173207973077 3.673828603546898
C 2.509917178395383 4.553061198194843 2.9527741277883166
C 3.1721233392778005 3.94209093953633 1.8810578449673079
Cl 4.381390331441529 4.925786162214672 1.0540481624986104
C 2.851944075759448 2.600454100917605 1.5193536813555764
C 3.46415670697057 1.910791838395901 0.4428138889757727
O 4.343102593361803 2.4842925611489073 -0.2589431430698319
N 3.11071803619186 0.6157489204467528 0.14521057159552145
C 3.742868335942206 -0.013576931833887602 -0.9852710982669655
C 4.878430679194062 -0.816975252768061 -0.8025404659795684
C 5.484903731634347 -1.4327654194926276 -1.9018343448124067
C 4.96394759194612 -1.2439574982362271 -3.185916036067123
C 3.838216544722764 -0.4358560346414315 -3.3729956450166694
C 3.230179324896588 0.18198522269810213 -2.276037545843499
N 0.39371368948973084 -1.4999357875973316 -0.015154344031106163
N -0.714275039231054 -1.2084046413345528 0.658165809908233
C -1.7612827214776297 -1.2426443752967493 -0.2036918824491755
C -3.1200354124766694 -0.8288437588807669 0.1847916939975021
C -3.6964026876959135 -1.3413051798498374 1.3531074204909304
C -4.966610348167257 -0.920914637514219 1.754263106226952
C -5.675545778343519 0.03196328420396829 1.011704069478553
O -6.9487482644575955 0.3992905011606091 1.4810809938675953
C -7.802906747631439 1.3824312245920176 0.9048203122545796
F -7.216504103868906 2.6317792938351356 0.9984581153835371
F -8.998144333881363 1.399064091635975 1.597127590391395
C -5.082694116178316 0.5689322120626503 -0.1547279337639747
F -5.710848868802064 1.498499102331291 -0.9148848599899477
C -3.8101046618426913 0.14444114573113073 -0.5519825974794309
C -1.285481242839656 -1.5766585842058336 -1.4682944412393475
C -1.8450732455620622 -1.8037120921495746 -2.730640116569417
N -3.2550329638602027 -1.8386922248235875 -2.9552379215811952
N -0.9900804669213011 -2.0856548078319688 -3.758691436452594
C 0.36358867893781655 -2.170524377246012 -3.56737161274795
N 0.8982355833780766 -1.9965230223008166 -2.3240986006396933
C 0.05997158565998232 -1.7074275920309607 -1.2999936513499564
H 1.627821345385601 -3.4688497205129014 1.4617623696396371
H 2.8272864535590867 -2.369700131865891 2.2354397397784798
H 1.0588201886147146 -2.1557884691497793 2.5448416915148457
H 2.4370008662371405 -1.949890087762152 -0.176120560739928
H 0.758051569420308 0.10125639680842645 2.5184583665639235
H 0.4548728011133168 2.038480800206203 3.910790127314167
H 1.0330788288025812 4.351145763256204 4.499431867094569
H 2.750005931642587 5.571888190876933 3.2304099875643844
H 5.282580299456127 -0.9687492871456139 0.19030692908778873
H 6.357263420948427 -2.0571268505136486 -1.7585407434775737
H 5.432908846887413 -1.7229086661531758 -4.035649292109607
H 3.435105357707738 -0.29100237970201337 -4.366896556604911
H 2.3554518360940127 0.8024229918236486 -2.4249868950203055
H -3.16662908026788 -2.0742012908024123 1.9496054119418127
H -5.403543789400535 -1.3361583803622097 2.6537768881571475
H -8.01743779987767 1.1342677201752325 -0.15557844651797717
H -3.3586947327977295 0.5803406706367595 -1.4350062291114556
H -3.9302135365420883 -1.943864038048226 -2.168474473147789
H -3.6226453452132428 -1.920665910212997 -3.9289987898372476
H 1.0116066947170972 -2.3951319544524345 -4.403238408768798
