27
020142
C 4.506639953098153 -1.6967507577766832 -0.008931107405588067
C 3.049756030561441 -1.7917845965973034 -0.310356352388094
O 2.594226434274873 -2.8244102857011244 -0.8730235225835014
O 2.1974857415153397 -0.7537741591162088 0.07561743312390805
C 0.7931265727720815 -0.7825598684216404 -0.16484265146064817
C 0.14393368349449315 0.5001414172412018 0.37899151760828886
C 0.6841149252933031 1.7372955853599787 -0.2889395858666421
O 0.8966351651000396 1.7588251930802872 -1.5318686193289826
O 0.9074480171311543 2.88296394027478 0.46844970845083694
C -1.3658973428825483 0.4467578125505371 0.25409841082045953
C -2.1698850422807654 0.47112522771919824 1.408783406520414
C -3.563204522062704 0.4194594379584473 1.3030946022851704
C -4.16876870142646 0.3425024228080812 0.046892750392583595
C -3.3823258487412873 0.3169160623554619 -1.1069436498291876
C -1.9887513319306938 0.36831197181083497 -1.007441062845124
H 4.8016933752191475 -0.6325140111745494 0.1044527182394465
H 5.097018056824199 -2.146273501155019 -0.8350576743190903
H 4.724979250982621 -2.2378939850755106 0.9350034600312374
H 0.3534018818469755 -1.6636509530227117 0.35280685687280633
H 0.6060423804235958 -0.8857234883304529 -1.2561525537987728
H 0.42017537484604767 0.5636780839622729 1.4554457455663647
H 1.2549377405955475 3.7312410546778363 0.037373856250758695
H -1.7206022374590482 0.5298970390051926 2.3922859099663634
H -4.1739262211293005 0.4388901586925415 2.1965034295436245
H -5.247465183826313 0.3025602028566602 -0.0323896432333263
H -3.8527727058834063 0.2571518399136277 -2.0798904562966225
H -1.3980154463564882 0.3476181561042658 -1.9139629263166837
