46
020811
C 2.918363568243169 -0.33388899172803416 1.2329618220160898
C 2.4156982088242853 -0.4408183034661807 -0.22807312419340564
C 3.106054218068894 -1.6827448233933842 -0.8536120072260535
C 2.8893333641616303 0.7903458095260106 -1.0469785323962
C 2.1352959469880988 2.0760318973170624 -0.7064239676046652
C 0.6177542574242237 1.9078318549623008 -0.8697645966808089
C 0.011999351349354303 0.7340047110806903 -0.03622796563433851
C 0.06106677656302705 1.1114895616842595 1.4801785762261122
C -1.4810395947532877 0.4621797876166137 -0.5241953369851905
C -2.4012089193711703 1.7122403587596318 -0.7229035488471356
I -2.9794692179415003 2.9591196096343384 0.9302365808489693
C -2.166881781586577 -0.8266167220331334 0.0880709523359153
C -2.514404657507785 -0.7402184686477173 1.5965280253741825
O -3.345800786692737 -1.1588069619940262 -0.6759253411264691
C -4.660609335785205 -0.69764647806915 -0.4978744201956255
O -4.965700429109611 0.12980264728354135 0.3999170363510104
C -1.2206179142493065 -2.040493660583969 -0.12075131019621482
C 0.23295556462445413 -1.8184924064865715 0.3242723713465883
C 0.8454279682884759 -0.5690496423709578 -0.35867799974178355
H 2.523045395367067 -1.1637171788096963 1.8540531704719425
H 2.65410110204162 0.6271581591752783 1.7077668831627564
H 4.0279431047225165 -0.3951677983496354 1.263531626323753
H 2.696825300002745 -1.9057513382037599 -1.8624417934055097
H 2.9883380480011574 -2.5829215547294377 -0.21512838147243724
H 4.199471717678508 -1.5117880466084648 -0.9625972411822917
H 3.97688862147163 0.9634335085895465 -0.8873889024346203
H 2.750619100847611 0.5926235384639589 -2.134139875606046
H 2.4752264972498423 2.875542606768152 -1.400096579382924
H 2.398904431069321 2.422261901770408 0.3122510473565267
H 0.408296087393102 1.7496050853082086 -1.951324559116814
H 0.14177413723368515 2.86897672948732 -0.5773718746642497
H 0.7214710590929877 1.9748759493353565 1.6906635333412754
H 0.40418338843883916 0.28434339074711484 2.1249921931966895
H -0.9181089108471463 1.4035651860294054 1.8768450695339545
H -1.353385495134655 0.1631667263183711 -1.5914094566354147
H -1.9311155228995078 2.403471791580757 -1.4513975572681408
H -3.3362878743314677 1.4122253739329524 -1.2311969495235253
H -3.212099561507493 -1.5612281572606064 1.8678976135578915
H -1.6277358809821771 -0.8587428188318552 2.246038514499589
H -2.9987636190404166 0.2154140803941393 1.8590298764546902
H -5.43427137107056 -1.0633496658792945 -1.1583933321219249
H -1.625828326092868 -2.9320241856916582 0.40774777913560983
H -1.2075104596182382 -2.3049493738766547 -1.2024822711058334
H 0.2957589384439527 -1.772396021468369 1.4270512369157935
H 0.7892350261030163 -2.7288619621471697 0.02595769216730854
H 0.6948084788285018 -0.7500357051356903 -1.4492146758690252
