28
021808
C -1.2437577502429982 -1.6257269538337793 -2.087997547445754
O -0.5545332322868298 -1.1250422755969178 -0.9469029005613872
C -0.8337637633846309 0.09100214858102826 -0.30546119722247556
C -1.8866046632137987 0.9188795360333484 -0.7506013835825317
C -2.1941481477350933 2.1149577544512206 -0.08848705535064753
C -3.3030270780938733 2.95597809634522 -0.57760038959894
O -3.6044637230726346 4.0352340004883915 -0.0018588563807294357
C -1.4448862059119192 2.4888898125084187 1.0337910424994505
C -0.3977154985906633 1.6835669482448665 1.479295677573537
C -0.06680913905446978 0.4948464228695135 0.8180795786714861
O 1.0193206680472071 -0.23204646591740785 1.3439735999738942
C 1.7926870351408661 -1.2460007160521844 0.6959404040445382
C 2.561795998256049 -0.6639064820763616 -0.49429053347485963
C 2.7654020888855384 -1.815172314765055 1.6843011817976445
O 3.3889567602480697 -1.0542831057870186 2.4728470681803194
O 3.0126158436596104 -3.1845120245972858 1.7024260651456522
H -1.1374112860967942 -0.9198935635092005 -2.9386521527272693
H -2.316742730088454 -1.782097528539948 -1.8486389111539185
H -0.8002756429488092 -2.5998717148608597 -2.378881473440619
H -2.4794564460528505 0.6343645239691019 -1.6096799086154383
H -3.87328169886366 2.6493831398850958 -1.4453088240370064
H -1.6653337777546524 3.4052987342915695 1.5670592833520547
H 0.17429828685414606 1.9925660463846662 2.345373339890605
H 1.1402514426179298 -2.079324108436243 0.36690145833130333
H 3.23046866620447 0.15750795217234284 -0.1580938006083797
H 3.1742323348961956 -1.454914197019676 -0.9778867081500435
H 1.8639946294420742 -0.2560206644261959 -1.253131067302982
H 3.6781870291399765 -3.5836630008066526 2.353484010192497
