56
022335
C -1.9901126515810657 -2.621796371658503 0.9917782434530714
C -3.160873009203853 -1.7223637153273665 0.6800460736846237
C -4.209639065178239 -2.2622354051696583 0.037262180357667866
C -5.461819697389585 -1.5198348680115326 -0.16064599707641633
O -6.405080278985592 -2.0455931446432474 -0.8092143689618213
C -5.646115466734564 -0.17169884553734827 0.46809046128326043
C -4.305668731962168 0.6024817219216206 0.5300537785985506
C -3.8825289077789598 1.0010057182426857 -0.90727891938267
C -4.533811204229506 1.8959414323695827 1.3447748321054085
C -3.231457571579048 -0.2989391482750197 1.2438544867698906
C -1.8702665869643036 0.3755452320128962 1.3165307536039688
C -0.9929031892903745 0.3733885278754742 0.2978002067785115
C 0.3642610590239281 1.0117890531887086 0.42455961701963707
C 0.2329610672689519 2.5365715494414505 0.4173628520992893
O 1.1514926465975364 0.6046090219137555 -0.6833312612142547
C 2.5122424911317696 0.39675537300546415 -0.33939705572232554
O 3.299123525359364 0.8487281497064089 -1.4277433713759484
C 4.682780340687379 0.7599157700558544 -1.1264708557361727
C 5.472944548508529 1.4164330732019914 -2.268427532028417
O 5.144090113248724 2.7759961328695515 -2.3720328495400573
C 5.098696022566863 -0.718828305073138 -0.9545993410559789
O 6.455746395516778 -0.7878593462069423 -0.5952842565194325
C 4.2390656587729545 -1.3767472878241354 0.1412254691213129
O 4.466250511784599 -2.76306354317022 0.16086250058549692
C 2.7476225721746252 -1.1129216127559627 -0.12338177240834117
O 1.9847647147864935 -1.56066856179946 0.9676780160146653
H -1.2863877959388546 -2.152057225020315 1.7093113761762397
H -1.4414791474710107 -2.857058364612531 0.055332685534335554
H -2.3472183934136397 -3.568400770642126 1.451449817917117
H -4.154150187934002 -3.2811692767672476 -0.3297655783481721
H -6.406482354230515 0.4078837940936435 -0.10198637191253224
H -6.044644015791874 -0.32714090770243515 1.4946878812561546
H -3.024305357669874 1.7054115748503846 -0.8938815571453247
H -3.5991689715505726 0.11037224297154657 -1.5061612779613405
H -4.717054396260346 1.5152361009899111 -1.431670050839933
H -3.6080520083826744 2.5087890308578458 1.3863538809670015
H -4.839270100846788 1.6583692862328807 2.3865995094657935
H -5.332987522643934 2.514727643661559 0.88153563439178
H -3.5652090224746553 -0.42463508426094804 2.298088220446928
H -1.5980930277198186 0.8631268364723985 2.248832648004359
H -1.241160870186486 -0.14294769917765052 -0.6255483798573765
H 0.7890812884044208 0.6873936224631157 1.404293283622061
H 1.237703107122665 3.0021441760503205 0.49785525913532674
H -0.3794191314126924 2.8798623948569126 1.2782982323207723
H -0.24364058324273036 2.8792963111436847 -0.5264702344867549
H 2.804704641145018 0.9649658484562715 0.5805971136825802
H 4.919662363018652 1.324910186549136 -0.1935463549054909
H 6.562041706497298 1.3413277922143583 -2.06365754113097
H 5.272584740984465 0.8925160795701488 -3.2318985534178575
H 4.293057593856107 2.8278111273719504 -2.8809985097890602
H 4.926120703760764 -1.2502736645883081 -1.9217669746519008
H 6.7844504130590195 -1.6812025199298666 -0.8767191074330314
H 4.5028152587923245 -0.930048945832655 1.1310148145522636
H 5.270824532614187 -2.916957776432633 0.7214884242101458
H 2.436497913176599 -1.648892047779934 -1.052292420778042
H 1.8674133181877275 -2.5399703664123274 0.8565522405214071
