30
023230
C -2.0842723174482822 3.3541680419577724 -0.5494627242303519
O -1.4769901741585327 2.1191644693903053 -0.9150233107258989
C -0.41950931650791423 1.5089469378334217 -0.21831565424797414
C 0.1417120192535644 2.100802028288756 0.9254030951695135
C 1.1820142696028766 1.4793945016954095 1.6075709659470843
C 1.688292106410311 0.2540086480939257 1.1636759241557175
C 2.738698391845887 -0.35788732824081004 1.8667182876935464
C 3.2559101798737515 -1.5785539029620428 1.4368627142540404
C 2.7331252403028357 -2.197255191700346 0.30370172503539455
C 1.6889779787758743 -1.601612128833331 -0.4079987604191872
C 1.1419008654285165 -0.3669979838241964 0.007158242953419621
C 0.07539339447521119 0.2745884936611685 -0.6850105122883063
S -0.7261612625735632 -0.4182572705634097 -2.1383295892922325
O 0.38557045968824566 -0.8399619877977904 -3.0897414965415515
C -1.5832942926264586 -1.9246847917568282 -1.6274118368261599
C -2.695002029156641 -1.5726948696619347 -0.6961201681766712
O -3.8420463078109433 -1.315679975731561 -1.1496427946171273
O -2.449767025290754 -1.4801787590465767 0.6703339583422815
H -1.3334544354555635 4.1718106734682925 -0.5757110047241968
H -2.5305417511237343 3.2748171279596345 0.4642448483724471
H -2.8902303318103915 3.5895637948858643 -1.274113344243402
H -0.22306073823751016 3.047094721193588 1.3002705115449187
H 1.592768833561541 1.9601834665626325 2.4879293211057596
H 3.159997154878012 0.1089947366660967 2.7494382330404727
H 4.065555240220316 -2.0454643945990196 1.9827247326926234
H 3.1400345778181378 -3.1441993821916547 -0.02747126799236445
H 1.3314466020756606 -2.1254031954207475 -1.277793178850444
H -1.991349592662663 -2.4318743442771007 -2.527203230503029
H -0.8882584476866452 -2.622556768703665 -1.1207448873821408
H -3.187459291661148 -1.2202753663458532 1.314061200753819
