43
025825
C 5.050785042038585 -1.3411255147709722 1.0846443907111574
C 4.936738659912674 -1.868018757066595 -0.32685762604577356
C 6.167813796434561 -2.3764596839232786 -1.031674851511869
C 3.7548399578995126 -1.912976897952872 -0.9808133034585566
C 2.449980732451779 -1.4054401108509094 -0.4184167576275047
C 2.26236769781929 0.0861682531251818 -0.7403247496833424
C 1.0722681557510956 0.7223959859527822 0.016681631435224428
C 1.146166436828393 2.254279318548553 -0.1088037469177151
C -0.2821376456289438 0.19238083624900035 -0.5093513827499799
C -1.4351899937751653 0.7048436028115722 0.298333196458732
O -1.6796663862156938 0.2015607776965391 1.4288324905954877
O -2.206867120991321 1.7619057370215496 -0.1971448806359138
C -3.3260866766858372 2.3067156574305265 0.49804915251005877
C -4.482409946805856 1.3449564933958231 0.4670429811497937
C -5.12834391831647 1.064982399588438 -0.7480630432649045
C -6.191925980260816 0.15790776125980371 -0.7875968762328749
C -6.614538211277003 -0.47736360665240674 0.3833924290306515
C -5.973304679931998 -0.20750715413417364 1.5956193360272608
C -4.909368901399333 0.6991027139334627 1.6395232080273057
H 6.10267997908368 -1.3501778150898864 1.4380946962817998
H 4.456397444708612 -1.9760385612679572 1.7743985594293081
H 4.686062744965933 -0.2950216897554931 1.1377061108234223
H 6.342566191582975 -1.7842235458319875 -1.9548650396980474
H 6.029679874824366 -3.443858838934197 -1.3059194020396696
H 7.071095999213996 -2.297046454728162 -0.391734927003053
H 3.7286407226457094 -2.3141409920137868 -1.9912627926929634
H 1.6341200289250064 -1.990016175186431 -0.8917018424875748
H 2.391894125561763 -1.5864318055313154 0.6754758711763561
H 2.1248415090840798 0.2134048574174209 -1.8371601633381938
H 3.193257458639597 0.6264045710084727 -0.46146584298304216
H 1.1654041318899837 0.4681926467088417 1.0965726013528032
H 0.3503111908658783 2.737322990125125 0.49601218420915455
H 1.0324259726799212 2.565757219501206 -1.1694233893433228
H 2.121555008738719 2.6265507951613065 0.2709624764280575
H -0.4179045329006498 0.4839614627902672 -1.5737001796958339
H -0.30935401588032424 -0.9153992032226754 -0.46104340448538506
H -3.035529791171331 2.565788574448904 1.5399349486382914
H -3.6295290018295567 3.250317783903396 -0.002597732392965052
H -4.8064449946763546 1.5478337203718522 -1.6625776525606346
H -6.68731699216635 -0.05380505882972036 -1.726335874123257
H -7.4373297836109185 -1.1798051976214772 0.35115493435085093
H -6.2995837971278155 -0.7022685073789879 2.501287981880077
H -4.41906049189436 0.8943914122932569 2.585116280456584
