26
025919
O 4.267053715555096 -1.1902474264912846 -0.05588277954359281
C 3.2083626444109865 -1.1265578134233094 0.6243733068366326
O 3.0163262745984616 -0.07582442548588707 1.5159774260157737
C 2.1433616778567357 -2.160582083316939 0.45153649869267204
S 1.1046623862758795 -1.8124580536610264 -0.9892778638445353
O 2.0633607754410166 -1.6297339284969032 -2.1595537727750744
C 0.3656515035941579 -0.20083070415081963 -0.7187431829156091
C 1.149038181118707 0.941876663324679 -0.9236848183388348
C 0.620541456831945 2.21379535494523 -0.7229595049372433
C -0.7040190997405013 2.378566620864964 -0.3162410121906224
Br -1.3300622860477198 4.17860225203799 -0.06869741550431843
C -1.5213778083346112 1.245750159112238 -0.10515518894686506
C -2.8627572821314162 1.3803654369638076 0.30532425813308234
C -3.6583826117590053 0.25360683141687035 0.5126068280285119
C -3.133796168670841 -1.0210585646933996 0.31591087778972426
C -1.808922679250611 -1.1810265590013518 -0.090599318844999
C -0.9826766367887606 -0.05815802279656555 -0.3087928386975436
H 3.7207181721916096 0.6428970484408499 1.6311864748629334
H 2.611124171645735 -3.1596946302415754 0.3255759602349735
H 1.5014399017355966 -2.1900883119015604 1.3569123385633093
H 2.1794508954120633 0.8500427139795006 -1.241780163872554
H 1.248805085762083 3.080210014507327 -0.8864790497226719
H -3.309242543656798 2.35105590380018 0.47020465428614716
H -4.687322393602083 0.3698504695272021 0.8281287750237074
H -3.756944058871856 -1.8909379999884564 0.4795945261630044
H -1.4443932735758664 -2.189420945271763 -0.22948501449600756
