53
029258
C 3.5325776869892107 0.6134763970786745 -0.37803118265036817
C 3.34808060753824 -0.36266315059673127 -1.5172341971954975
C 4.555252836031773 -1.0284501327316733 -2.1255539480665333
C 2.129445560191476 -0.6512524628193934 -2.0265373404441203
C 0.8260072815944554 -0.10685262400106528 -1.4889100747911292
C 0.16334540766714753 -1.0691178003738036 -0.4734302821499486
O 1.0819060625027999 -1.4758788197119619 0.5220050406385423
C 0.3275424964628408 -1.8041715580166802 1.679350851316831
C 0.8270913311370978 -0.9339001804625016 2.854698669907338
C 0.625539183653555 -3.273556635570336 2.0478695529854556
C -1.1812178357535505 -1.491237489866838 1.3642802401013694
C -1.9663392992352422 -2.7145961302008716 0.7271770971320068
C -1.8517163518674293 -2.6587235061916172 -0.8236731169739692
C -2.6369709779990673 -1.440824722355689 -1.225486923289861
C -2.2451126092830203 -0.2956240437082125 -0.6410985309582801
C -2.8554900822497915 1.005022872696651 -0.9510996645425615
O -3.870740180956154 1.062028348343697 -1.6974843247510194
C -2.2583276253945397 2.2322203778473635 -0.38357368964312044
C -2.7425823611527704 3.521926629866002 -0.7031545409704507
O -3.8104110102050686 3.6850625341014194 -1.5858707026837136
C -2.1445799748267986 4.653626484598825 -0.13072567644565833
C -1.0738699095470816 4.518706496917388 0.7541869334603658
O -0.4950475579354688 5.65639198771832 1.3122047808338453
C -0.5925256542117514 3.245068129120571 1.0719151699367055
C -1.173474729169314 2.105597725006302 0.50769147353211
O -0.6541858728022824 0.8538381243251586 0.8625873531893041
C -1.0217154899256677 -0.4022122575068253 0.27719548474408634
C -0.4049797134958556 -2.331517517363094 -1.1585783140627062
O 0.2757374338352805 -3.064800692750049 -1.8588156406908254
H 3.2018904113218096 1.6258651668883355 -0.6912254735042535
H 2.948653039695874 0.2924485736036368 0.5083344480608799
H 4.596852873726175 0.6847780985787287 -0.0721406886436193
H 4.622456404724895 -0.7714550701139051 -3.2040038875986023
H 4.467899066598366 -2.1306307284309756 -2.0197815219618103
H 5.495911691064023 -0.7055882469682095 -1.6329851203758343
H 2.062477263269718 -1.349368480550332 -2.8570498432188267
H 0.13473852862929694 0.05163879529216903 -2.344811127565249
H 0.9859765416981804 0.893010031435921 -1.037989222361858
H 1.901491424512843 -1.1331697566995353 3.0574687309568627
H 0.2479637101588219 -1.1581696759128863 3.77627424761534
H 0.7430759498576262 0.14854354041399356 2.6446684125173983
H 0.5314914965500689 -3.934473442429869 1.1608013263262718
H 1.6736216791815668 -3.386189159337825 2.4000435434515586
H -0.05244776028206005 -3.6207497005714413 2.856928536171696
H -1.7301499581161797 -1.1098932886244839 2.2539090052849784
H -1.6625784140400877 -3.7079261751571186 1.1029282325225367
H -3.038843622786651 -2.633149025415181 1.0153333974485863
H -2.2228932386802334 -3.5814864169176057 -1.3189549308888566
H -3.4613993220630723 -1.495548553642597 -1.9252772394831172
H -4.168380761083138 4.602323806162668 -1.8255755868583545
H -2.5132568951780083 5.642322321612569 -0.3741174269957319
H 0.2836258436311093 5.592320044024002 1.957563937546166
H 0.23858539601603634 3.1369609593669163 1.7577537540856454
