46
030917
C 3.438432466614491 3.555742844669978 -0.06919842509377963
O 2.7993760059599206 2.3163687968802895 -0.34741890412613935
C 3.0341940410232917 1.5927114178097368 -1.5219439905881171
O 3.8484671402835797 2.0254325710252186 -2.3832843132328287
C 2.3580750885486084 0.2631200949094359 -1.747016449334822
C 3.221249452711875 -0.9141955182295661 -1.323932523524425
C 4.106327406119473 -0.8394285234917183 -0.22768858186075577
C 4.854686151789371 -1.956278444907216 0.1559088046583985
C 4.722654869577283 -3.1609677420170055 -0.537625735862012
C 3.837465996648488 -3.2534532773050513 -1.6134747808988492
C 3.086453824179185 -2.140096903767217 -2.001658147850058
C 0.9913517795257534 0.21063315096339272 -1.087167049711455
C 0.8573468374002099 0.0974358629276281 0.30889401680742207
C -0.4072760315856295 0.06353158700125192 0.9015213763379502
C -1.5691369658463037 0.14654938187612554 0.11458565632046286
N -2.8772568274857013 0.11131467817055257 0.7275156005472642
C -3.0927874584870376 0.7289799055936869 2.0466108331200936
C -4.546919705263425 1.1857228904140922 2.199492818905992
C -5.546672794243638 0.034936682046133476 1.9810969843750437
C -5.024247734944498 -1.0703808624833655 1.0445598257811641
C -4.000975212148129 -0.5410583511629358 0.03506147613948734
C -1.4348313993666413 0.2683007025408603 -1.2794738841858668
C -0.1700242077652666 0.3035041678664201 -1.8723730959538334
H 4.5394038289307685 3.414955289310794 -0.03102222542649837
H 3.089777180582561 3.932392273022489 0.9141730673688846
H 3.1812060485224585 4.300270229835482 -0.8521072808055851
H 2.217174171640472 0.18035804100188657 -2.8489964336362017
H 4.217404835429753 0.07706467340265993 0.33645643007657067
H 5.53435051971527 -1.8886428392755985 0.9955699751299816
H 5.301846026831654 -4.024619790163683 -0.23745318035664445
H 3.729431363965102 -4.190132939085075 -2.144948325123956
H 2.3960002543208008 -2.234355879709946 -2.8308493930159337
H 1.7309399848545146 0.03807525123507972 0.9437814766305409
H -0.4760775095449276 -0.03978366316976802 1.9764855867030444
H -2.436770737194919 1.6196638704902178 2.161967571409657
H -2.8406046061262447 -0.0023114374153909915 2.8447484591575956
H -4.744292477964879 1.9856836052022886 1.4520478425880323
H -4.696524786951075 1.6254939023824027 3.209243749979332
H -6.486822905857333 0.45652645691869154 1.5631195671709885
H -5.800685560011508 -0.4221930997770049 2.9623825337050222
H -4.538167896664348 -1.8639256394719728 1.6541536027107235
H -5.875962929222259 -1.5369106739393914 0.5038905358009237
H -3.6311187293410114 -1.400902703560551 -0.5656445970990529
H -4.487581207563614 0.18631609659997336 -0.6501681438226445
H -2.309059564156702 0.3527362145076399 -1.9116309571601318
H -0.0998180274397945 0.4058176503280517 -2.9481913727549838
