52
030912
C 2.894663659479392 3.9705413151490934 -0.677434822396959
C 1.7626339832555915 3.1284185356366074 -1.2960821160354468
C 2.0286892090222195 2.8718538695005873 -2.79209136584546
C 0.437284522106904 3.8919636028214977 -1.1502965054951555
O 1.6132335306850019 1.887895633704263 -0.5924429054277341
C 2.5665364392174372 0.8589696131240147 -0.5043467192648248
O 3.7307868707682568 1.0132054468083902 -0.9658781622395485
C 2.218135647301507 -0.43285640110973755 0.19770433026895373
C 2.601623987647624 -1.6600341921781299 -0.611229702073236
C 2.429972028337602 -1.7089944722581853 -2.010442546138185
C 2.7472412790515253 -2.86990996090015 -2.7224303283401112
C 3.2254931316261723 -3.9966506012603418 -2.0494691457256833
C 3.3831825147003123 -3.966618694127083 -0.6619957657968465
C 3.0678266303596464 -2.8083905113457943 0.055294504662923516
C 0.7518711450759092 -0.5053698060258558 0.5865116613339292
C -0.26244489421559997 -0.4168569105638323 -0.3829507000111136
C -1.6075846209339113 -0.4944261203088443 -0.0149120914082181
C -1.9757498435974863 -0.670828969134968 1.3323588936990223
N -3.369466318822194 -0.7497559521371702 1.7145838689402482
C -3.8346253012896176 -0.7742034719959655 3.093707297304038
C -5.352603938497408 -0.6829930549778969 3.0240989315179356
C -5.724783798276709 -1.0518138365859424 1.593135967958601
C -4.471125026986888 -0.8102448558026509 0.7643957334472216
C -0.9567837753016214 -0.7692376950031724 2.2990125907415897
C 0.3886516165563354 -0.6893421956047856 1.9297761322357057
H 2.922874738249181 4.9829049760798485 -1.1353488099397593
H 2.73609814050228 4.08083791437132 0.4166741633420792
H 3.8858298068536734 3.500785392062973 -0.8408439477086653
H 1.2504013796899862 2.196945170681836 -3.209544555296274
H 3.0200384075265716 2.399370752715645 -2.9504955844475207
H 2.0139771055186495 3.8265032997443376 -3.3611739613137606
H 0.21561286151134576 4.076928376165217 -0.0765474424396344
H -0.399264191569244 3.2962529175105173 -1.5765452779011846
H 0.47986144453256335 4.87005398458296 -1.6769536441083177
H 2.8353594884255653 -0.42830216816783584 1.12432528112205
H 2.0534286731978306 -0.8512993380236346 -2.5529398719830945
H 2.617780924077554 -2.897620151179906 -3.796611117626875
H 3.468282343856538 -4.8952560529850695 -2.602307420714201
H 3.7449004554153706 -4.843852969583314 -0.14046364111022602
H 3.183160749741954 -2.808563726736147 1.132532851120734
H -0.01439864240296913 -0.2739965844297947 -1.4261617404867055
H -2.356138024829705 -0.40919810438060783 -0.790654274761912
H -3.422960800269579 0.08984376511983914 3.659373193347607
H -3.5271533498873833 -1.7281245105195433 3.5746567167649967
H -5.673626513334407 0.36153829484478195 3.232305731050561
H -5.834367229562294 -1.3662219401047107 3.756918941957209
H -6.000177738493812 -2.12863054995496 1.5482445866458312
H -6.578112495707775 -0.4409752830227432 1.2261581769939454
H -4.548975333795851 0.15637282237753808 0.22065130836797103
H -4.319529040441601 -1.6437679866055173 0.04433559201610615
H -1.193206458007644 -0.9139445216555767 3.3442927544594614
H 1.1476446219332057 -0.7729040943313922 2.697544956737933
