51
031039
C -2.8901531894346193 6.639899246290154 -0.9548034282272663
O -3.05400206109092 5.593727553855898 -0.002999949058891163
C -2.63754198736811 4.269237777517842 -0.2028603853136712
C -2.0056745239934157 3.846573376567657 -1.386840954422161
C -1.6088108544399853 2.5146924300449736 -1.5380867801825227
C -1.8414847398275194 1.5792797511517362 -0.5153411357001386
N -1.4133173977993332 0.20916014255928725 -0.65732053042019
C -1.3591445496945564 -0.542197944510444 -1.8722681832106038
O -1.7735159719380853 -0.13249962542141078 -2.9891200735427126
C -0.8333213343909898 -1.857744736474895 -1.6103862268020022
C -0.6047048788935694 -2.9238736671604633 -2.4745060542496007
C -0.08933384028862708 -4.12644701850441 -1.9369911610742765
O 0.17331688220347732 -5.245193386166344 -2.742877957876112
C -0.042609262092164826 -5.292370618867081 -4.149471227461881
C 0.1737620007565017 -4.223070906143874 -0.5491260001401439
O 0.6846520612795197 -5.432415620345533 -0.05258304910840765
C 1.0029924182924823 -5.670814259918524 1.3146800626760757
C -0.0802352655430051 -3.116696782963093 0.29667836702944145
C -0.5785657718750431 -1.940384029304922 -0.26296801493095906
C -0.9381453107871668 -0.6567758037962582 0.43531583893151216
C 0.24513307458996253 -0.06980972684410268 1.0781660314317916
C 1.2146062198248837 0.41712431966952024 1.6027658184422433
C 2.371772350557688 1.0014335949903181 2.2259367082831987
C 2.8405969351252436 0.499596656934964 3.4484217814063505
C 3.966542582118659 1.0691659838531529 4.052202210934936
C 4.625455833304244 2.1392544982748998 3.437168249923015
C 4.159180691349296 2.6411082608600016 2.217581419297785
C 3.0333911149009083 2.07390113928093 1.6113136918156021
C -2.461842654242292 2.00952705760755 0.6694970540186646
C -2.8590603942957165 3.340917230108275 0.8194028026750841
H -3.434400424059557 6.393247853214042 -1.8908348299927842
H -3.308475640025544 7.578552308441501 -0.5374049180865037
H -1.8117556500304224 6.795687714838316 -1.1691658491567873
H -1.808921910829892 4.5404146431503 -2.192670129909713
H -1.0944156362267414 2.226262655411242 -2.4444468721788493
H -0.8227853417969163 -2.8156450386396172 -3.528166504653139
H 0.5785430604245488 -4.524572829649964 -4.657158805346624
H 0.2502595907313656 -6.293052388194111 -4.52779387534965
H -1.1169458606146276 -5.126797279099942 -4.376478138068758
H 1.390404458946971 -6.704612146894339 1.4216856443215022
H 1.7865252127752682 -4.960576721867426 1.6536959052373277
H 0.09317191711575172 -5.56526330281337 1.9426406128643652
H 0.10407866032375389 -3.1606080661500346 1.3613373505591873
H -1.7437879636891553 -0.8381286685637187 1.1773372135167106
H 2.3368574781616243 -0.3289391850857105 3.9325842897986347
H 4.328064184714541 0.681510716471165 4.9962200619821715
H 5.496459855788735 2.579234047681987 3.905293523649877
H 4.669709375912959 3.469556208096942 1.7424059703775143
H 2.6792835729712454 2.470326349991301 0.6664660790131928
H -2.65020836052441 1.3153596654408388 1.4771009043083339
H -3.3415987563772425 3.6537385710747987 1.7367734419698395
