83
031179
C -4.718961133599082 0.7133830339871717 0.31209690455188716
N -3.468920835603406 0.07309486285132573 -0.12631282453067977
C -3.506978962736901 -0.2221528878160885 -1.5804050227963655
C -2.0969434519050174 -0.25459157173338154 -2.241064644095973
C -1.3654123291299547 -1.5646490161518904 -2.0127174145027866
C -1.839995674477706 -2.6522925980174343 -2.7909372265130687
C -1.265737058314084 -3.9000843084958774 -2.6311053520075283
C -0.2605365617285985 -4.115210434616571 -1.7633706014654402
C 0.2579810578035473 -3.1028631940575107 -0.9725694502342889
C -0.28417714539796574 -1.7899085906910548 -1.066776623047611
C 0.33706483364035716 -0.7784104892094882 -0.14007918657436252
O 1.5147039485131595 -1.005214095887074 0.24596157177266928
C -0.4260244676087111 0.31311428779327277 0.5844754399379924
C 0.29051354767198595 1.7122161155672264 0.7660072376559196
C -0.07563744697936609 2.672134285314663 -0.3494598952337414
C 0.7744796145362075 2.848195054368619 -1.473161100481666
C 0.39306753784114246 3.7709218900010253 -2.4912889742489854
C -0.8139832950032476 4.483005880635521 -2.4022475413587263
C -1.6132768175158225 4.273266619094975 -1.2871470707236405
C -1.2662441856784425 3.4060010799702285 -0.30590371851256803
O -2.242303669804094 3.4151241009512185 0.6755500282506125
C -3.2456565408545113 4.367181464175541 0.2974711460022822
O -2.8158049581935325 4.87478088789898 -0.9727456010825124
C 2.0716344029644773 2.110608827981919 -1.5123061979434629
C 2.8217224028135126 1.9940702484496797 -2.6972202361481137
C 4.057163929176968 1.3546621232849423 -2.703991254282315
C 4.559006248146736 0.7720798280491505 -1.5404059638383727
C 5.803565955783908 0.10656183599459237 -1.572767925813131
C 6.241656068666624 -0.5114711862628497 -0.4096879056557241
C 5.510940985057961 -0.49938764728573687 0.7313782662443001
C 4.283533836019434 0.14633500876110334 0.8176996280741214
C 3.795626271343783 0.8272189592882685 -0.3290881082757451
C 2.556055631789343 1.5238062465171283 -0.3208347168684299
N 1.7652695577466126 1.6628515466549794 0.8862817925436701
C 2.385414997693424 2.330255789103984 2.045794010350123
O 6.173988961182496 -1.2131926167950178 1.711498847433188
C 7.403324548140289 -1.695264049631066 1.1513175969695306
O 7.405502119126989 -1.2253017831278654 -0.2053842756887255
C -1.029375314564903 -0.24268808943848585 1.8697983488149412
C -0.240861858197936 -0.23311920573634295 3.0522114539664154
C -0.7539772425195496 -0.6899087146756815 4.274214188112889
C -2.0489952337484367 -1.1799448417067009 4.291179070162317
C -2.8094369907805286 -1.2472049109256498 3.170292307052849
C -2.3529912057334066 -0.8105775787314717 1.9180199788634709
C -3.19726374290726 -1.1308572770103593 0.6931491888443253
O -4.026355737008945 -1.8248169701732244 3.489262813567671
C -4.029289481158733 -2.131009375236932 4.889706749574949
O -2.74933188377833 -1.696476593623244 5.36345734608359
O 0.11397394563942938 -5.4449059810345775 -1.810105653456906
C -0.7246254344268943 -6.1076281151025595 -2.76536287233277
O -1.5868809724776267 -5.081431986789081 -3.273295197596833
H -4.667926416854324 0.9577696458570898 1.395855784083647
H -5.593992730758661 0.05025343290936232 0.12793478434484098
H -4.874547050203933 1.6663750295929938 -0.23425090323374506
H -4.059144911435863 -1.1700809078736851 -1.7757631862081842
H -4.0732331067706085 0.576571961691861 -2.113571469525036
H -1.4823412285237911 0.6422001922964419 -2.0361486514131784
H -2.2654076508666128 -0.1631017090909594 -3.33642925670037
H -2.648586917066035 -2.5311399440695923 -3.5016508709872145
H 1.0551177911531269 -3.346918388558715 -0.28096162509323946
H -1.269273636637819 0.5741454895872814 -0.009761335266250315
H -0.12638735871851287 2.161001702003335 1.6959403999763594
H 1.031562177506157 3.979512910789254 -3.335442862640904
H -1.103603037545262 5.1878183811103575 -3.1707151100985933
H -3.288256786896609 5.188676598691105 1.0442525323995162
H -4.234013605422094 3.8766349938177775 0.19690199351235804
H 2.4592690315807686 2.3819970247657483 -3.6377375651277766
H 4.613451468148309 1.296528392010621 -3.632233053564021
H 6.403203501854607 0.058347990151130916 -2.4737667650976074
H 3.725329555024643 0.0810482716422681 1.7384223885891967
H 3.3871439940508044 2.7430122589155346 1.7830193156777026
H 2.4973646058350583 1.6139132792789654 2.887161459149834
H 1.7648704919647225 3.1869748947628533 2.3899350519911926
H 8.27020144003637 -1.275777664069863 1.7035656855980361
H 7.422695694036924 -2.805709874178686 1.1765491792938172
H 0.7768948194686276 0.12045122581798061 3.0269064985617993
H -0.1531631408178744 -0.6749412438852389 5.174478093655264
H -4.1496590327085325 -1.6324891007798563 0.9827822188057244
H -2.6637265932023406 -1.9138074284414068 0.12945964841630447
H -4.8379108208121835 -1.571773541502435 5.406226350255273
H -4.144421155962304 -3.2257900290598283 5.041751136974207
H -1.3215852238949282 -6.900533432219358 -2.266304644525151
H -0.11013493502722776 -6.531476278694624 -3.5854865813230483
