36
031809
C -1.5777917420890988 -3.5456895412230223 -1.0434199192706908
O -2.1975832264000883 -2.312214979969438 -0.6929060176822545
C -1.5265367617691203 -1.090316074100877 -0.5250253871620594
C -0.13192624131755204 -1.0026620577276881 -0.7028167610485383
C 0.5449223331230495 0.21341201827319975 -0.5378109317052258
C 2.0501201133331697 0.277694682503163 -0.7237650460365642
O 2.381770496777288 1.1896516385686176 -1.7431008236899008
C 2.7678103120519313 0.6180093537361937 0.5993925797163668
C 4.2687730432773865 0.5499996618319538 0.44859860870173035
C 4.786568922300019 -0.3653792977579615 1.2545871930618944
C 3.6850312115081225 -0.9539276501355426 1.974664724787276
O 3.778270439992716 -1.8669050960445972 2.835464380164241
O 2.493889303197016 -0.3741514067419801 1.5863071329256382
C -0.18430201127200369 1.3563104541622046 -0.18279879796792772
C -1.5762752202314012 1.2931068584755419 -0.00023192630742178687
O -2.3285354489653463 2.4252641778937294 0.35465032894450643
C -1.7862682662339673 3.7252182823496063 0.5648219035615533
C -2.2539377836204495 0.0750431846783448 -0.17084547190337687
O -3.64811691126007 0.0957065873319706 0.02867461277181853
C -4.539713728780531 -1.0075217585365746 -0.08837492131127533
H -2.3540465094241054 -4.335664839132245 -1.1036696823506
H -0.8371039234793234 -3.8352399180871846 -0.2683673240479188
H -1.0842926199407523 -3.45766725464926 -2.034293715969913
H 0.43680400333974145 -1.8828151345413133 -0.9693231260140645
H 2.419377607804337 -0.7192305971084838 -1.0529278100242592
H 2.2404844166152382 2.1083628419174327 -1.3955933399959832
H 2.474470379281418 1.6196688507148491 0.9811317082659373
H 4.854879794500022 1.169005141623874 -0.21811746218646394
H 5.835969066243039 -0.6121799421000538 1.3462447175949985
H 0.33701425162738374 2.2927094005920945 -0.044297603939049975
H -1.0532008025604858 3.7031172205307152 1.398718588538363
H -2.607344834851056 4.42111707821459 0.8328785656749019
H -1.2998639938539247 4.0910532409866684 -0.3640544099307079
H -4.521879785101565 -1.408788435685524 -1.1234314853091192
H -5.570110598938653 -0.6596073988668595 0.1295168585396536
H -4.277325284882387 -1.794489291976144 0.6495200606044353
