82
032588
C 1.926133565263793 4.063473802105818 -3.5616948122014724
C 0.754181685509302 4.439196086346987 -2.66209405736824
O 0.49637044119412144 3.4008588688277843 -1.7210957817416939
C -0.14102796367772688 2.199201711521843 -2.0522595989892465
O -0.6020533602705737 2.0278047360137323 -3.214523444513552
C -0.15519682171926338 1.059086155681481 -1.0488614224681945
C 1.247411561867162 0.34535876876083976 -1.0790158773101284
N 2.061923815013283 0.6755279503195784 0.12016816783079999
C 3.4890292152989604 0.2806579330271296 -0.010253950866851337
C 3.735544559345205 -1.2459189491482074 0.16407708916063676
C 5.112337461301794 -1.7079826680919203 -0.3781617185053814
C 5.475424771895099 -3.08136138237358 0.20514795041611106
C 5.12588743108453 -1.7809540144518967 -1.9148644627875482
C 4.34151525663844 1.0977761097204817 0.9267658124178182
O 4.4518746934900655 0.7715024954670961 2.141727183578521
O 4.991785876231701 2.2360283722869587 0.43834344850921697
C 5.816226544882991 3.057641515011269 1.2572743728809832
C 1.4165632887945592 0.3299542256252264 1.422801527657302
C -0.1376189978798666 0.5004048316753881 1.3923201645128804
C -0.719562371003521 0.9032628227299834 2.735986265274453
O -0.027471282081142023 0.82395811230218 3.78920790650929
O -2.068819270875605 1.2763034139516631 2.805514786809569
C -2.717730400957175 1.6620471571939504 4.014826116570646
C -2.318667206988167 3.0791819418543778 4.408497732207963
C -0.819909143048518 -0.8360391500702794 0.9239138380636512
N -1.8774279498714328 -0.5854579133278021 -0.09659728169941169
C -2.6846950644961405 -1.8125339934425415 -0.3665350965689899
C -3.7319632746169664 -1.6067282708054291 -1.5015649462803113
C -4.597230537958064 -2.868934810999157 -1.7988252036360632
C -5.972683046024408 -2.786101107863739 -1.1161050652849986
C -4.791233710220727 -3.0621528562442974 -3.3101406961364015
C -3.4099012298627183 -2.2159585281742777 0.8919085570446661
O -3.3683619102424145 -3.4137976343544394 1.2851950359813809
O -4.122686487822727 -1.2527930900595805 1.6132915493772952
C -4.792885635567835 -1.547384889002422 2.832464495093434
C -1.3041255936650604 0.03099566967516269 -1.334427871415027
C -0.405838197139508 1.550037256477804 0.3507700513183781
O -0.8006866997093206 2.678288185290517 0.6146034749649577
H 1.6794363318125218 3.16181152071968 -4.1597320667018245
H 2.1485966999906627 4.9003904226923005 -4.256075323617062
H 2.8253628582969808 3.8575862822632168 -2.942270463809814
H 1.015767425747324 5.364395241284365 -2.105575902246619
H -0.1534944002676859 4.6461382379128215 -3.271298930248746
H 1.7975657070184463 0.6418964352476617 -2.0006083506489025
H 1.1420164385679483 -0.7546827494327089 -1.1653020763282085
H 3.8239030511666634 0.5653870411052915 -1.0289779001188528
H 3.676461654339462 -1.502353382961321 1.244004986751986
H 2.9383587971969525 -1.8305194853895368 -0.3403801204879171
H 5.897665067278498 -0.9904867562031486 -0.05278147856337721
H 4.708911354803754 -3.8390105314977845 -0.06932809174390688
H 6.462400699199366 -3.41680676602171 -0.17983511659234294
H 5.547363447561289 -3.022342808071325 1.3127181457609705
H 6.098582459885416 -2.1801495625477076 -2.272437027973435
H 5.001046361829208 -0.7766619952647614 -2.365387324425435
H 4.314556986532962 -2.444583277284942 -2.283544922199491
H 5.213426097751688 3.5002257640590364 2.0787289600453907
H 6.649350942535409 2.4578744692633148 1.6813999482188497
H 6.239313529339941 3.8788122611138744 0.6429124065589646
H 1.8377526161984639 1.018197288560818 2.185939944716591
H 1.6671360970751206 -0.6995328328441807 1.7476102527175192
H -3.816142325049355 1.6337965935534964 3.8519216485490326
H -2.4722422805875626 0.9486622508573802 4.832089466477827
H -2.5734432954233872 3.7845002688943694 3.5885564681487216
H -1.2285524736733415 3.132368580543954 4.6115144167400715
H -2.867327206703129 3.379019775439135 5.326094906962294
H -1.2367739790664214 -1.3557606604206296 1.8130137422573749
H -0.08235096430441229 -1.559015826931727 0.5127778300289487
H -2.0013887371832766 -2.63793521012338 -0.6753215133764191
H -4.37809934909808 -0.7335303767549068 -1.2592638108930008
H -3.189630110489554 -1.3427189355379667 -2.4324861044998327
H -4.078883583468944 -3.777730319036331 -1.4209012858192376
H -5.868673083821922 -2.736005848902487 -0.013947814572592256
H -6.529262818733031 -1.8887021120998235 -1.4610976853910087
H -6.573280347526013 -3.6896206595915437 -1.3545623222027665
H -5.307853508891196 -2.18343465491082 -3.753601815377847
H -3.8066071722155996 -3.192600273489935 -3.808949195966155
H -5.396280229965983 -3.9729197337813433 -3.5080031315132367
H -4.064288401581618 -1.9130801771060233 3.5876740366807276
H -5.275227454789348 -0.6251776929203634 3.2157948214986476
H -5.575556995972221 -2.3170019026943063 2.660789743340366
H -2.1314394342695073 0.5772001511661393 -1.8357057489663091
H -0.952610483158591 -0.7503469163138229 -2.0439504395763755
