42
033595
O 0.6855498932783458 3.5681489258427987 2.4317076146343437
C 0.6562626052235744 2.997776870347195 1.3093256969825275
O 1.2216491680872097 3.6268801957177463 0.20121250425683482
C 1.0403239939949471 3.1403054769870717 -1.0963757061683115
C 1.7208089368461226 3.757443575526916 -2.151559342361595
C 1.4857638575757723 3.3598146119663888 -3.468522782834397
C 0.5468221293846592 2.363846395917471 -3.738809165281852
C -0.13606626683033 1.7404595190186374 -2.6911906014184206
C 0.15241203245428012 2.070132340271577 -1.3503303789371335
C -0.6307660110732487 1.4621835005703934 -0.18787977027472644
C -1.126232276325648 0.036650437934107556 -0.4105474875266788
C -2.353412568022927 -0.3577362227359044 0.15458721721645247
C -2.8127328505281914 -1.6704578361802767 0.013804409997707623
C -2.052584316423585 -2.6073018251092654 -0.6884722086656766
C -0.829006650607999 -2.2347068917669155 -1.2472618195140972
C -0.3605562686426995 -0.9257187617171301 -1.1017999332601593
C 0.10208589122096386 1.6093934576544529 1.180451287900531
S 1.4560179503243216 0.44333765573577366 1.4476688691320407
O 2.3294019827112233 0.4190021810894724 0.22396548490998053
O 2.283416464969894 0.9020949795865367 2.615921407613094
C 0.8799826322059224 -1.1860195803034919 1.807446454483884
C -0.1926465046940388 -1.379509857742272 2.6910757216110355
C -0.6619166291482141 -2.6694824238583434 2.95657984499796
C -0.05289671768033232 -3.7743613155448017 2.3551702521488433
F -0.5116576107976912 -5.024237007926085 2.6105466551640824
C 1.0330692345848524 -3.590265371627776 1.4948696317848218
C 1.5032013752989652 -2.3012396851430164 1.22578513168215
H 2.41600703799546 4.562570060253636 -1.950443783805148
H 2.009237913361763 3.845179562173671 -4.2820719359713335
H 0.3358606871034996 2.084729847400241 -4.763086779592983
H -0.8932297634447699 1.0068937892359522 -2.9339107779575335
H -1.537935725023945 2.10450731829181 -0.11533820861991402
H -2.951023359084173 0.350286687176847 0.7151920993734862
H -3.7565148419721313 -1.962886089984628 0.45540813851231265
H -2.4076591769999633 -3.6243221032760786 -0.7923332967058675
H -0.23344885189779935 -2.965370317676372 -1.7789460462233377
H 0.604770260078497 -0.6709417185480663 -1.517953717967798
H -0.6448984092636257 1.4616795441395554 1.9890310712150256
H -0.669966282315443 -0.5370604282077401 3.172083484425027
H -1.4978880502262952 -2.8113742300692426 3.629219609350343
H 1.5088277938360481 -4.445380424285047 1.0324408660214202
H 2.341567290466732 -2.174944841135797 0.5533402896730683
