41
033822
C 7.407207419273951 -1.495588983784349 -0.6081796870401575
C 6.547255726894897 -2.017872057886856 0.5369344166490404
O 5.172031064870988 -1.7122948284303856 0.314005045551525
C 4.625275826738191 -0.43431460963758106 0.4887622101196795
O 5.3464437670495455 0.5100977472315606 0.9143180238036775
C 3.1976031223764765 -0.19687670587461817 0.18119368646782855
C 2.630790126749442 1.079845776490894 0.34130521220213555
C 1.2811451875284185 1.2988381860755709 0.04969583810189862
C 0.46908412921779913 0.24174359311481228 -0.3951854842072383
N -0.9158799730518741 0.445425027513087 -0.7234028685843971
C -1.780140384802379 1.3625952453102117 -0.0338702713150857
O -1.4261764886097474 1.8643119829170338 1.068695483376272
C -3.1590504045239314 1.6369489900016345 -0.5811978122023465
C -3.654849172347323 3.0444113151845835 -0.2231369142458607
C -4.135642921909488 0.577579503983615 -0.11283160711533662
C -4.814141649715195 -0.22055738070577502 -1.0519834554737597
C -5.716845028789306 -1.200411428097568 -0.6275956412134382
C -5.952428937810994 -1.393606462790174 0.735507709820658
C -5.2860950887412175 -0.6068882191845266 1.6777558459337896
C -4.382898233972506 0.37470290243826027 1.2592059100961297
C 1.0395753592100347 -1.0253693897621132 -0.5779465254753879
C 2.388595285668242 -1.2462737406351025 -0.28612641125374055
H 7.354696437171629 -0.38795851290040373 -0.6585711085892425
H 7.054810733806092 -1.9210496622832658 -1.571713257291589
H 8.464287494069945 -1.7950626380036 -0.44759271897846714
H 6.888358580675515 -1.588054388327424 1.503798611548452
H 6.6594082168312365 -3.1211717601613502 0.592118504719933
H 3.2318566113366773 1.9129910167720654 0.6836360810374319
H 0.8825238760458153 2.299558171375688 0.14833389300480637
H -1.3456284045037437 -0.17583955200668688 -1.4460332908166715
H -3.0824859815559145 1.6062742141111679 -1.6911356674464932
H -4.649605125842149 3.2237057260341317 -0.6845308875801553
H -3.745163150975241 3.1739193111562445 0.8764220485379359
H -2.9473832131797244 3.806706272407103 -0.6143442627989285
H -4.645469922638852 -0.08662933293249013 -2.1132186805160305
H -6.234302743897073 -1.8105099707783225 -1.3566848084164511
H -6.651414275754517 -2.152914169503236 1.061549413737683
H -5.469588223234372 -0.7574352757748903 2.733835149656982
H -3.875581781860814 0.9734192445650919 2.0046150567861307
H 0.43330044414362545 -1.8472824486325035 -0.9378797423138913
H 2.796521698057826 -2.2391127085895364 -0.42852703827732086
