56
034015
C -8.753975102159732 1.0741832980576538 0.9627223036917727
C -7.440202141414823 0.578289350062792 0.3659403838269124
C -7.111725069337036 -0.8390025489344968 0.8527959258366422
C -5.808701807353745 -1.356694255129637 0.24412596434886896
O -4.711429081737571 -0.5653977946092454 0.6952912459139403
C -3.375927750639409 -0.7751152074837467 0.3223214243271759
C -2.3995628341932327 0.08689176797356925 0.8347110368220223
C -1.0544412933841405 -0.07968514405968222 0.4934216034563966
C -0.6673944277982035 -1.1201415688613505 -0.3616615536909019
P 1.0583076756738343 -1.3138405635840738 -0.8255030257471035
S 1.5445782079759698 -2.952713502037814 -0.5546734517526497
S 1.2312091159625398 -0.8520059891719832 -2.885269181580073
O 2.000960640118436 -0.26377674064601986 0.14239162870978975
C 3.321424882488921 -0.1330600205207507 -0.36438281607985046
C 3.6121632850685184 1.342486030784278 -0.8184424517539208
C 4.064143124112557 1.405829745127275 -2.2989932960829433
C 2.387754023307156 2.284009548740869 -0.6701235912102935
C 4.7353958237800535 1.7752025453419251 0.18481253248724272
C 6.070800126443885 1.0706830532274811 -0.13278751485379256
C 5.771318808178949 -0.39454146604274537 0.2139871504201983
C 4.339988929099913 -0.3220570572659528 0.7961754884475448
C 4.0239076502277635 -1.477824232056448 1.755023746498521
C 4.342911847929138 1.0405828717803978 1.4529257459301672
C -1.642125079023843 -1.9802732566428745 -0.8863418976455728
C -2.987560798195959 -1.8139702861911933 -0.5450943371475058
H -9.590730370642328 0.4089713531951062 0.6603787532559279
H -8.965556566078408 2.100267521627915 0.5947883888660589
H -8.688264704198842 1.1008401384694548 2.0713565105209795
H -7.524380138874564 0.5840752970167128 -0.7427294711412679
H -6.6274932939887785 1.2771788969069273 0.6607971402426439
H -7.023475135075424 -0.8460541196014563 1.961419411064122
H -7.935825256219402 -1.5280805910744968 0.5653035419196104
H -5.872813576135523 -1.3208319351691427 -0.865511494584563
H -5.659611275670025 -2.411008734198251 0.5633038924418985
H -2.686038887133454 0.8925530308720951 1.4988413983672955
H -0.32031666709013407 0.6057625706445734 0.8965687210207586
H 0.3604991357613056 -1.8912722037733618 -3.260675656925914
H 3.5645945195944004 -0.8693026699237564 -1.1668909739543796
H 3.1963235393239104 1.2977131469373704 -2.9820629829567724
H 4.772912894202411 0.5910722649926328 -2.5549527150195046
H 4.547124474042249 2.3836069796225057 -2.511651556020811
H 2.006197844868679 2.320125535674418 0.370168171941193
H 1.5549464066250214 1.9465299045987625 -1.323762614974117
H 2.6619509314230716 3.3197300938722005 -0.9651848836505669
H 4.843312416740985 2.874207301444818 0.31358934291064566
H 6.868854374201503 1.4650730721107164 0.5355825111724172
H 6.4199834248648235 1.2046970265690793 -1.1758854803420404
H 5.827620949826788 -1.047497050394008 -0.6840962393300729
H 6.499203138543887 -0.760598983689128 0.9720193531979451
H 3.0235559856956113 -1.3446335373278449 2.2183051122916604
H 4.777846484461931 -1.5210610077762037 2.569644504551512
H 4.041733280124473 -2.4411267957495144 1.2035639669934373
H 5.102727614066245 1.134296077813996 2.2646220544804114
H 3.35110350532388 1.3334554681596515 1.8606506632898223
H -1.361807728515547 -2.7809059382811503 -1.5590034286212027
H -3.7159960751986962 -2.495840691428843 -0.9618690041797152
