46
036052
C 5.4421234495523905 -1.9374114495617727 -0.3033493402121783
C 4.5460675213516035 -1.1089518455808776 0.6314453131520487
N 5.16777007757984 0.19160578608384954 0.9008085184906633
C 3.113893252715075 -0.9415720339794996 0.04318037275447101
C 2.117021551505559 -0.33151114678216453 1.0726223952421416
C 1.8106947385886214 1.1554041428366242 0.822424991168723
C 1.3190187207128912 1.4507186717660014 -0.620999720680549
C -0.1679975898700537 1.7082756541650757 -0.6716902316505374
O -0.5859779061447867 2.772189940977879 -1.204591523207006
N -1.1018330144900115 0.7356331268866441 -0.17400920163603883
C -2.4917219079668325 1.0138203248724331 0.0659032178550649
C -2.939597612977492 2.27559920320277 0.5195228421754315
C -4.312313271382606 2.4863020709765697 0.7790673014034478
N -5.216145575658525 1.4768951700786441 0.6060768350271447
C -4.7775000107083105 0.2659261810488618 0.1801683394132663
C -3.45880684034504 0.01602956150121767 -0.07946968059625335
C -3.3677150927263835 -1.3079151326509948 -0.4670463917510348
C -4.6702639233044865 -1.8001256378523305 -0.4136474067832814
N -5.52990312997807 -0.8266749072325583 -0.03032905161359962
C -6.959192787562243 -0.9750848085105307 0.21830461906887255
C 1.7213510030882726 0.3614422582770566 -1.6375450657732802
C 3.1114759263297516 -0.18929670719840655 -1.3138778465714067
H 5.663893014947202 -1.3786363432688926 -1.2369631476851823
H 4.95056517425781 -2.8994033058909636 -0.5617276593885135
H 6.404135374733889 -2.1689423165507495 0.20140189088586966
H 4.468077013460218 -1.677154427556183 1.5870400997568337
H 6.152958045773667 0.034634532082729576 1.215767846617372
H 4.686167164518964 0.6240855934499041 1.7210690687806385
H 2.737795423099389 -1.96980272819903 -0.1637739003093016
H 2.4901396906903863 -0.4551926511058719 2.112279089761718
H 1.1625335748346537 -0.8970399985173028 1.027047194537043
H 2.7375502225681148 1.7388603564669054 1.0088321188728582
H 1.0692945223329657 1.5060380001604965 1.5740454759358018
H 1.8268535691855055 2.390130950508228 -0.9397577711380136
H -0.7706311309701644 -0.2442822357365019 -0.04081793344976159
H -2.2408412757928526 3.0812754914056257 0.7000899966353611
H -4.651186720204468 3.452579804029312 1.1278610831845703
H -2.4769990147388623 -1.8558064451588958 -0.7439935892890931
H -4.963436822494598 -2.8181120768760217 -0.636136338758337
H -7.364460621119249 -1.827269943056981 -0.3676980668157918
H -7.496446160116144 -0.05144002207483488 -0.08440143536247627
H -7.130586818472499 -1.1616291569550836 1.299024524362213
H 0.9936492237756338 -0.4796553095020963 -1.6342790923868111
H 1.7257292984291683 0.7954361856471251 -2.6613459247577183
H 3.8355899463474 0.6544740762366501 -1.3015326878138758
H 3.419209726644712 -0.8844464528620606 -2.125000127451512
