36
036459
O -1.7412098203977386 -1.5190832502744527 0.9896343026758173
C -1.8679943647467334 -0.2917723000563783 0.7380577078226401
C -3.088117381450376 0.48300994454858603 0.9297256834238729
C -4.335453909790567 0.10811338182172697 1.4262999931716591
C -5.344836172805191 1.0859923173450425 1.4816415144012895
C -5.090077062990411 2.4028864354989716 1.0405121662240988
C -3.823540607288284 2.754233877381203 0.5399429772896545
C -2.8397183047601686 1.7676610613952672 0.4995218138712236
C -1.460089946640252 1.8173647584041044 0.03181910897572802
O -0.8956224561963395 2.8253479959713945 -0.47027405115888704
N -0.8313338714889694 0.541782660424168 0.19927374476989454
C 0.4449863436737625 0.134508495975492 -0.4040850202745012
C 0.21070399356992806 -0.46702259121191786 -1.8026599374037766
O -0.5881260896573166 -1.618755944939426 -1.7391589432090624
C 1.229056628215421 -0.8041087344029058 0.5392573434302202
C 2.6677812125318807 -0.9564537411660482 0.11213164725531888
C 3.5984437533528304 0.05852685445964017 0.3923567867722207
C 4.927783289868832 -0.0699208521643991 -0.021784599688571358
C 5.336769803142751 -1.208858808905247 -0.720639359624255
C 4.416782260047133 -2.220977385726828 -1.0072859524487037
C 3.0864805422586916 -2.096837977187189 -0.5947570324992064
H -4.5230436266032354 -0.904612499327277 1.7585239753410753
H -6.3238262580101 0.8265438022900291 1.8630152504451032
H -5.87501285761572 3.146525795051225 1.0858696539770287
H -3.6205213864304477 3.7600561155457832 0.19602363477010273
H 1.0607568805999703 1.0513530531481645 -0.5423873045476113
H -0.31171356104097847 0.28503129227648294 -2.431399813902456
H 1.1834778992511983 -0.6812481588475814 -2.3022276771720693
H 0.026222280177177284 -2.3937525582949126 -1.6595447112733095
H 1.208562097022551 -0.3816587879420505 1.5679329473039025
H 0.7440361052133043 -1.8009647681845642 0.5976872126968094
H 3.292962646247108 0.9482627970742316 0.9290823971938531
H 5.640511469880876 0.7145428391630124 0.19752070508545563
H 6.365894947529412 -1.306415755025117 -1.0413039000169837
H 4.734170565013445 -3.101538563598044 -1.550737945407133
H 2.3848549603165523 -2.887760800520185 -0.8275843182704393
