69
036466
C -4.956276815067509 -1.413110411307571 4.162888307586555
C -3.6405094596358194 -1.639865096289561 3.4238231857979393
C -3.4898241061171698 -0.667750646651888 2.2454651043414975
C -2.1737438911649782 -0.9311699225226275 1.4783100667805777
C -1.8200564280221216 0.06692977229803655 0.30205193793213253
C -3.05985350433264 0.023322565320860054 -0.6774910633560897
C -2.941031197356009 0.715966166189841 -2.0518139516989873
C -4.321383749765755 0.8904001686939451 -2.700807422706362
C -4.206153326241604 1.5146243375218558 -4.088936066128074
C -1.6647316490096042 1.5363562852049488 0.8241651012186931
S -0.32164820381136877 1.8745167194120986 1.9671569847690682
O -0.547213399180794 3.264323302365486 2.4954827912141497
O -0.30408156162510125 0.9382406588941667 3.1410564231228184
C 1.2293477415705087 1.8209676762715055 1.1163014433654939
C 2.0242887053189946 2.9743045473144583 1.1031052637496341
C 3.2193030472530415 3.0136427360698224 0.3910343107962518
C 3.6593958548024346 1.8978638106159018 -0.34025157091578345
N 4.906376500679189 1.9408992999193366 -1.0887694301076103
C 5.899223226533964 2.9917539740523122 -0.8272287333130149
C 5.205116221859977 0.929851191599986 -2.1125456355998335
C 2.8607452361427947 0.7367373810836437 -0.3247194274836636
C 1.656216321568323 0.6682319950646205 0.4149515515427493
C 0.7976394294284148 -0.601791673618632 0.41864872338507353
C 1.5938609895674305 -1.8607954555077242 0.06531473335597957
C 1.739272197500094 -2.303403534314106 -1.2671939161472727
C 2.5122045090573333 -3.429982186998407 -1.5625457334365929
C 3.164457269637478 -4.124418051845282 -0.5409674040280348
O 3.9338869126480267 -5.2435732016996175 -0.8518025212098627
C 3.043324068349425 -3.685945801567339 0.7828779188503239
C 2.2708255087683473 -2.5603953110587874 1.0829462905728462
C -0.5134523545570537 -0.4587264334115164 -0.44046010155884086
O -0.2262683320762271 0.25112727396795903 -1.6224613008320015
H -5.028512118877013 -2.11823398158773 5.017974375463592
H -5.006354255218608 -0.37371753817358017 4.55343134327607
H -5.8167020947594335 -1.5908670245294054 3.4823262278961176
H -2.8000916731044794 -1.4973978350779775 4.138496894536647
H -3.6121535815382644 -2.6880376028008204 3.0530811023996227
H -3.5050821688429914 0.36593743213104923 2.645618496792249
H -4.361470259424967 -0.8102381388593918 1.5734637864600085
H -2.2313326973296665 -1.961749670314965 1.062186088169948
H -1.3815291247544683 -0.9748298367195926 2.2384160797709347
H -3.339998468043376 -1.036449188919092 -0.8714881026326949
H -3.9255133377411084 0.49325488822621577 -0.1631313116440246
H -2.3314084784616074 0.08327245541466531 -2.7310415695727785
H -2.4704194947603324 1.7149059798643589 -1.9561874431798627
H -4.820001421121767 -0.0994839382702947 -2.7917587595353224
H -4.955201786285897 1.5479359833139963 -2.066609520489088
H -3.6022078660896777 0.8636534208439293 -4.756244414664311
H -5.219049730438398 1.6324681585598073 -4.528625076310375
H -3.729141947453932 2.515845946704373 -4.022895960935961
H -1.5242654978764727 2.2338708242740073 -0.022421863519734846
H -2.6041891643761126 1.8732353525642609 1.3050892627460076
H 1.7154129309510615 3.8635165024015055 1.6360875591722295
H 3.7851651256937036 3.9342684554505967 0.4050159264753465
H 5.522424496893811 3.967337787983454 -1.2012963270589065
H 6.867420790538902 2.778790987670642 -1.3287077808371444
H 6.100134582622864 3.059517981114265 0.2634006595750979
H 6.101273978264522 1.2005991658917263 -2.7096708178574422
H 5.397576202545302 -0.05090536018907593 -1.628722511461248
H 4.351433404924186 0.8422033340147548 -2.818051776614694
H 3.187752358421356 -0.12124263399199194 -0.8852040603751539
H 0.5206323908657329 -0.7557388188433604 1.4693254122453074
H 1.2727574851369339 -1.771885246128852 -2.0843795868011847
H 2.6118137034783655 -3.758014980719589 -2.5896114326176103
H 4.419753072620954 -5.767842556022001 -0.13326597112057742
H 3.5537679286403674 -4.211435761865789 1.579732887619655
H 2.2054458182233154 -2.231013760575969 2.1123811217762656
H -0.7915587237706356 -1.4843636988943973 -0.7701337197506233
H -0.08583614227420291 1.2037007809925402 -1.3941650772561216
