20
037563
C -2.528732413068974 1.4377172172015578 0.2653524922236679
C -1.50113211315449 0.35089534709415615 0.1521765338926717
C -1.867641207267927 -0.9905783383457568 0.3409696926238966
C -0.9199831344221719 -2.0066539034232878 0.19075724647317344
C 0.3967567564966395 -1.692847085028461 -0.15576099279136993
C 0.7757794697712929 -0.35602723183520474 -0.347667331244241
C 2.1773818493244734 -0.018974302419493303 -0.7635547525451604
C 2.962204199666533 0.796359498492602 0.1920380543575329
O 3.130868930323182 -0.5982804948093204 0.09736324723108751
C -0.1817171630571493 0.661253417039676 -0.21406484433405948
H -3.00153577510641 1.603147045290854 -0.7252037327719933
H -3.314261620155547 1.1599233464589034 1.000109097232445
H -2.0600454184351698 2.3854347431952205 0.6062551010118725
H -2.886827497781265 -1.2498149899537065 0.5999549384211186
H -1.2083332237258788 -3.039714278269466 0.3362757446095797
H 1.119065244554889 -2.4903991490683413 -0.27883151595399336
H 2.491878788900746 -0.056511268691463064 -1.8273050213477833
H 3.8355600846712528 1.3360474249642762 -0.22898898534112855
H 2.479029062919125 1.0768981647503573 1.1522152837778312
H 0.10168517954684937 1.692124837356897 -0.39209025552514815
