17
038409
C -1.4288109913116045 -1.7267252114245422 0.7385474100356908
O -1.4444263238566117 -0.4008237860519118 1.22150906684161
C -0.7988950385377477 0.4568675340059443 0.3011812116731297
C -1.1212139586709067 1.8724650521300024 0.6765114549082306
O -0.7126285528939466 2.798674376611388 -0.005560108675979147
O 0.6056654088659237 0.2744892742494358 0.397511341958249
C 1.1895760822950725 0.18628558423492486 -0.8851329318548085
C 2.672125188169476 0.05425054141166102 -0.7447313068149373
O 3.3744724571253237 -0.039995786893611746 -1.7382408310412005
H -1.914081665798209 -2.3817780967439175 1.4907801044612106
H -0.38934487210626645 -2.095824164994255 0.5947846307807664
H -2.0078937482025356 -1.8170663459574816 -0.207018994673933
H -1.2160336675864503 0.3010915561858895 -0.7279674578341566
H -1.7254742273536987 2.0847859257437804 1.5532456631990061
H 0.808686927841224 -0.7108282643953935 -1.423533787536323
H 0.9750584308407365 1.1029199006665353 -1.4799255599332193
H 3.133218551180222 0.041211911221551836 0.23804009450666383
