41
038817
C -3.208680885627511 1.7755849582289065 2.4116054089702486
O -2.2905867575622016 1.0035941807283626 1.6430737731154716
C -2.643348815252562 0.12573202029125224 0.6007859052420246
C -3.924038970462289 -0.028633023270588108 0.21047295628537643
C -4.291049727900802 -0.9238673138884551 -0.8986557765033798
O -5.500926751708349 -1.0425653857812063 -1.2281564788200283
C -3.2346047067014765 -1.6482269316334193 -1.6767988950425903
C -2.0056716035574365 -1.9209228616562435 -0.7935360265993454
C -0.9055693499943955 -2.605084601224828 -1.623759752735355
C -1.5208147970380808 -0.6029909214511038 -0.12079579522626571
O -0.9402551651466177 0.2798613366276719 -1.092052397734913
C 0.39226385173898853 0.5367253105044736 -0.7862303596711705
C 1.2719701861797705 1.344637158987219 -1.5024430729601888
Cl 0.7290830653448392 2.1672675974748215 -2.956322523489797
C 2.5958463170834896 1.4814432691975479 -1.0360218961787164
O 3.479904178020625 2.296745616985518 -1.7601876943115131
C 4.840127513490249 2.524813897753387 -1.4067574617459984
C 2.9967081741448784 0.7964590039025836 0.1435402280271822
C 2.0823742745361367 -0.018962136337773307 0.851047565498801
O 2.4246487389579556 -0.7178557816781586 2.017824060227734
C 3.714506424361496 -0.6895290710214339 2.619143059544431
C 0.7865393216725722 -0.11826316501511598 0.3469501903292195
C -0.3659042145550811 -0.8582191927542724 0.8194319147004372
O -0.398081359601507 -1.5895532514262156 1.8450347758390935
H -2.6450932105297067 2.363321930254863 3.164734713928389
H -3.7607011984867142 2.4794092471649734 1.7535823063220184
H -3.9193027911960256 1.107329703528545 2.9422741159604278
H -4.723373495201552 0.5006121737091657 0.7108486007469408
H -3.6466767586682787 -2.6111233356744568 -2.050876107955878
H -2.9489944796105703 -1.024869583850277 -2.551990443598772
H -2.3119743738385488 -2.6319982269255795 0.007618235035489194
H -0.5592117736551702 -1.9435181451960124 -2.446176582277202
H -0.03764997829305653 -2.8671830207072264 -0.9831738327329392
H -1.2940422640671498 -3.5465369004308127 -2.0673580084666083
H 5.298653983945313 3.2063313341818445 -2.152137267817958
H 4.899852699216028 3.001517417966585 -0.4055565250883118
H 5.401235824242736 1.5664974895202837 -1.4091987808511526
H 4.009229370387831 0.8974726238634437 0.5047512064313288
H 4.473996374306033 -1.0850951346168527 1.912083547631334
H 3.7058829242814824 -1.3285703301836214 3.5257034817396793
H 3.973730206744651 0.3482120438522009 2.917679634232458
