50
038909
C 0.30020668198411965 4.0890351136178404 -0.3338123270537539
O 0.6829996444168158 2.72328529203694 -0.4561021086974626
C 1.7484791996320965 2.127842458896205 0.2390117893716932
C 2.563893630851539 2.8632090881264256 1.1191287868883857
C 3.611228115666178 2.2407449488041626 1.800424903133392
C 3.8678410402201244 0.8787908263604842 1.6234562472899616
O 4.929861568640912 0.3064913187258467 2.3425773205137217
C 5.318329755008903 -1.064593448011201 2.2888927890929773
F 4.275388174435105 -1.8725032591520558 2.7056324315753937
F 6.395563041517087 -1.258367935265414 3.131597830488868
F 5.693105655137435 -1.404085545070804 1.0012141959375989
C 3.0588972801676197 0.1382215442058148 0.7422223750941254
C 2.004277573130277 0.7556409269553302 0.04802307755590464
C 1.1290549664957454 -0.06538841266115696 -0.868738884835796
N -0.22900114605121394 -0.22779603770216655 -0.29892747827796196
C -0.2647118960869791 -1.0606850749643262 0.926684676643913
C -0.058642759949445525 -2.5526598181908833 0.6363847572304062
C -1.0902529936464551 -3.05429662639058 -0.370636528435943
C -1.0989640021292923 -2.1760534108024663 -1.6363581046793363
N -2.131398084712225 -2.6184998507203847 -2.5758930865553777
C -1.2349165414361676 -0.655280515204282 -1.3060702818609606
C -2.609979881606744 -0.12131984322840858 -0.8957236793235122
C -3.7487987437550205 -0.9263787285370679 -0.6674856652142245
C -4.9633685801182805 -0.3491605863156606 -0.28281930570691516
C -5.067429310900644 1.0327360792026308 -0.12462938603936628
C -3.957637373744338 1.8440295287827952 -0.3566340124684787
C -2.7420041641134536 1.2736194992461949 -0.7416514586212853
H 0.012705802619407756 4.311983212308292 0.7153351019941768
H -0.5739203307505053 4.280118522524609 -0.9893617528332989
H 1.134103009146673 4.749516715139217 -0.6521502793036297
H 2.3957652388299477 3.918198532232142 1.2862187674571055
H 4.227352113465233 2.8214615634191884 2.475389681320345
H 3.2343868087859993 -0.9183160175014448 0.5957820464173625
H 1.0784686951265325 0.47417147630338685 -1.8397575768653243
H 1.5948509939377904 -1.047771043758079 -1.0915164380993962
H -1.2462465861675016 -0.9229914912292198 1.430888621836261
H 0.49933302632617405 -0.7204110788055712 1.6567583389283238
H 0.9677049369613354 -2.740396148548409 0.2576218395650321
H -0.16791463267485773 -3.1245238253934215 1.583116704094298
H -0.8376038603302484 -4.100461798723426 -0.6492091922999039
H -2.082766194036809 -3.077895965785807 0.11949085146492607
H -0.11200635229398209 -2.3195542066762527 -2.1334756454015387
H -2.0432619559564227 -2.0544896868100753 -3.452423260053957
H -1.930811472753257 -3.6089670463156813 -2.8462945505391484
H -1.0257422646872123 -0.1312764283231082 -2.2667839790952695
H -3.73418157640444 -1.9944968400679524 -0.791172617729448
H -5.828446799453664 -0.9767038908388243 -0.11056015454882867
H -6.009486219258696 1.474975173901321 0.17273582340098612
H -4.038317218333978 2.917047132729087 -0.2395323525020051
H -1.8959860111512172 1.9242056074762208 -0.920868850253031
