44
039263
C 7.631741564857581 0.21097885985136727 -1.3882337438096541
C 6.226930256184729 -0.20733451514807266 -1.070099830003508
C 5.440357494913709 -0.8419599420218183 -2.0437133189648438
C 4.118432307307097 -1.1980801803314522 -1.7596615209977
C 3.5667263377833995 -0.9173019778138749 -0.5023259626884107
S 1.8969475656194743 -1.3475185458491503 -0.15040403535974242
O 1.516733651865323 -2.560842386612141 -0.9543018147458381
O 1.7674866232570403 -1.6686792789950102 1.3134357368657796
O 0.9087100377044378 -0.03275253653386632 -0.557639337914595
C -0.43100305293709257 -0.3801589951907854 -0.2980494044345445
C -1.3440975361268825 0.8156343854223416 -0.6202334609508773
C -1.0398282489002755 2.0095664628077885 0.2973159708213207
C -2.8286733263380404 0.4232401428324566 -0.5287154394755725
O -3.13445241565126 -0.01140384921547666 0.7865093396039711
C -4.524457439281433 0.010814182309274611 1.107247164896645
C -5.408684055063297 -0.6796037742652951 0.03890884740390125
C -5.007241468315425 1.4563976409729236 1.3593726638795636
C -4.672785417426301 -0.7749716372185725 2.421152961687156
C 4.342173139290967 -0.25965904171598664 0.4620247121249531
C 5.664155066482471 0.09688652758996949 0.17892823176793732
H 7.623582770482621 1.2337663902427283 -1.81937245730927
H 8.258228513374227 0.2092109181980281 -0.4708642007867498
H 8.09221959693415 -0.4870695941640472 -2.119497711873028
H 5.849548563135212 -1.0595729452197866 -3.0226192052816216
H 3.5252128628674426 -1.6862941287638111 -2.5222932384876
H -0.7303397594310896 -1.2373207343321864 -0.9424194725573797
H -0.5653181863801451 -0.6629598069912808 0.770801682673149
H -1.143307065493094 1.1301668670390383 -1.6688778655572591
H 0.010441826495814687 2.343619078616614 0.16021259110486974
H -1.1911780172218291 1.737269404694491 1.3638895499314874
H -1.7056209612632978 2.863422624943478 0.04868508176046298
H -3.4331816385818215 1.2991861365494115 -0.8446266548182038
H -3.0199168621024746 -0.402896062590881 -1.2483026417180287
H -5.448518941377555 -0.08745483650490969 -0.8995719827682176
H -5.011484377059854 -1.6907768260829426 -0.1942089509414289
H -6.452916808863032 -0.786368641864253 0.404583342290534
H -5.083068750895317 2.037539764048641 0.4181026572379357
H -6.017220134278387 1.4571378217410798 1.8236888547875008
H -4.304493301543701 1.9814532599709145 2.041418316420581
H -5.731441377391668 -0.7991281162958561 2.760160498954758
H -4.057995435307358 -0.30893186748073986 3.2215079489898466
H -4.322938241746009 -1.8212233064921197 2.2853094679495567
H 3.922772837863028 -0.017113579878924333 1.430160281668074
H 6.247761802557908 0.6110866397426964 0.9326163486240918
