50
039973
C 1.3483668201391856 -4.024210069596658 0.16413551948969188
C 0.6451361762628713 -2.71742708680826 0.5186992715213778
C 1.6012087229888543 -1.5249617149042978 0.3978656384477345
C 0.9201789308781003 -0.2468497257271862 0.7896369392038513
C -0.01575033818971682 0.30808486529495777 0.014873636243469443
C -0.7138721677573463 1.5611150169170958 0.38490992050347944
C -2.028271349583871 1.733043287772887 0.16114113456073867
C -2.952658411613686 0.6720385510975913 -0.39947251646692156
O -4.177531984152397 1.2538665649309186 -0.7713826763961015
C -3.1813225952440614 -0.47288462166576184 0.6113655139048324
C -3.9750238673524603 -1.6275194562765902 -0.019388422649824374
C -4.255313225150819 -2.763323891627145 0.9763718808441563
C -3.0025198695715227 -3.5692717799892226 1.3214401717148874
S 0.20468800533005446 2.9589784197938345 1.0170835734875492
O 0.6144681547264498 2.5794787144962084 2.432661541798951
C 1.7047131786475527 3.0497827867063676 0.0537873784971297
C 2.8895142173182986 2.441699829032425 0.4917757272111682
C 4.04418365663576 2.501041153028609 -0.29335511254324864
C 4.026032656700888 3.1638115346699824 -1.5284419216331373
C 5.264025359728904 3.2476038546554573 -2.3704653071606514
C 2.846311465007295 3.7893576954601733 -1.9554292339064134
C 1.6913633201729485 3.7300096119259463 -1.168153702187286
H 2.150958946407121 -4.238614580284266 0.8993049342075488
H 0.6151607115877241 -4.857824235855873 0.1809018484834395
H 1.792443096479574 -3.962970009616579 -0.8513052431294755
H -0.2209102678300889 -2.580713089990077 -0.1667618366243063
H 0.26212354081558653 -2.7852225753160242 1.5605922091433309
H 1.979799840409928 -1.4399815233989441 -0.6458367329591992
H 2.473508286616708 -1.682901155889356 1.0699185136512857
H 1.2053205354329906 0.21573597785592843 1.7255059294249564
H -0.3086934604161954 -0.20369738845738486 -0.8937935300510718
H -2.46342612203812 2.6989074955294132 0.3905209328366593
H -2.496743466762726 0.2589912496377504 -1.3237883381935105
H -4.612412531259911 1.602143658396002 0.05027556585266712
H -2.2041602303100083 -0.8604571834922122 0.960499393408729
H -3.72662382569846 -0.08402821396121443 1.4995027915573047
H -4.951257307860867 -1.2396925509154286 -0.37927204327286784
H -3.4262177159375566 -2.0277960155888457 -0.9001661974994667
H -4.704964237132239 -2.355612214781655 1.9085273145980386
H -4.997744651990085 -3.4539545570411727 0.5191593785773333
H -2.4986506925657554 -3.923560781153864 0.3970232299530885
H -3.288219638594046 -4.453721807741413 1.9273136525644416
H -2.295196960306044 -2.9591262591655894 1.9194944573461736
H 2.9254912379827043 1.924122661448514 1.4396828920261253
H 4.949886372434129 2.0285167505744512 0.06259390918588723
H 6.0279908670773334 2.5116461704285498 -2.037608315051919
H 5.694180848443808 4.268161558376051 -2.2957887469562874
H 5.016685668286181 3.0333194979857296 -3.4323914234223976
H 2.8201083230990602 4.31787862156562 -2.8991139777710773
H 0.7836359777079713 4.206986961664556 -1.5146495223708647
