42
040490
C -3.745807791487241 0.6234616847865042 0.8053691876072069
C -3.1384387222476957 0.3996114316234588 -0.5836003603993216
C -4.216660590402931 0.004390537317707891 -1.6012832643226835
C -2.0198637773198183 -0.6310479334597137 -0.5227487500061619
C -2.3105473461546464 -1.971500734881247 -0.21718727218021347
C -1.2894605264785595 -2.911772091330002 -0.11287056849346407
C 0.03672368000769571 -2.5383190793999146 -0.32178627702116985
C 0.36763850040423446 -1.2044151468400008 -0.6434698357675014
C -0.6721519358603507 -0.24935283343580644 -0.7043413441867202
O -0.3601487121357408 1.0957533270965 -0.9251165670587209
C 0.9420057024864508 1.6402571656680067 -0.7236433010671027
C 1.080693251754972 2.175874636548595 0.7297170154980701
C 2.3473370809085834 3.0261155495588348 0.9091970351012165
C 1.0266683665919694 1.075572418549896 1.8019503550488731
C 1.997422048810257 0.627909632599514 -1.1017529598806057
S 3.3885353125532247 1.1724073763691838 -1.7960485972738307
N 1.7343410130501182 -0.7876805789644816 -0.9215733412772136
C 2.8477544634339798 -1.7569076196965276 -0.9368172223485992
C 3.4173755599649907 -1.9058787315591639 0.4367684386185009
O 3.0355089233532935 -2.845246011357686 1.1844307873859463
O 4.336253922845722 -0.9729050421962931 0.9064290893711342
H -4.50938133611502 1.4289651132564256 0.7613996047608561
H -4.228595675523852 -0.30288959139650345 1.1839037328332185
H -2.9533072158503204 0.9338574529185623 1.5199503646678454
H -2.738553492872025 1.3787223167670326 -0.9234444852210263
H -4.950931231123335 0.830176233615565 -1.714050346366933
H -4.764118985027631 -0.9058998894125841 -1.2792148674623045
H -3.7530569601684185 -0.1845607155762274 -2.5924396670422802
H -3.3287383911508077 -2.2906026352312945 -0.03920436915384061
H -1.527234175559552 -3.939391899601032 0.13309678730807567
H 0.7853110159779345 -3.3065067034127376 -0.21518344717898358
H 1.023255615891111 2.5114676407978433 -1.410142913836695
H 0.2135780520642488 2.8504876463356914 0.9104972847171953
H 2.328709414201729 3.529336728034765 1.900194615484999
H 2.3999262815529008 3.8143015789882893 0.12890463901611995
H 3.260485852352817 2.3958467895342643 0.8558473759460726
H 1.109993382953933 1.5286618010628128 2.813416879686798
H 1.85803890617356 0.3516533249046397 1.674413323659011
H 0.058537554024794984 0.5359077063244341 1.7638727588778844
H 2.5289604303144233 -2.736704286911574 -1.3456477742361765
H 3.6550468354815764 -1.4389822066138653 -1.6257159940560713
H 4.72689569832342 -1.0501743613818717 1.8379242502485957
