75
040735
C -5.285421424461894 -1.475467967169451 1.757668880810581
N -4.525828119324701 -0.8216743038161045 0.679698640065353
C -3.2320207710472544 -0.3422804500511532 1.204936406714308
C -2.2482726417377163 0.0687567955779485 0.11612851243403255
N -1.284890750899124 -0.9875562148161332 0.4629609896714436
C -0.06030293338207334 -0.43681730883992836 1.0784213876417645
C 0.883276199358247 0.09709236860927667 -0.00609069346870673
C 2.1110197210980144 0.7959866156470887 0.6149849057097578
C 2.987933482056225 1.5982839017099721 -0.4053675184762731
C 2.0917257147671373 2.613398782424583 -1.1563631034764887
C 1.4287633779920017 3.627637302751217 -0.428859971276892
C 0.564836492950339 4.522408683339623 -1.0608958442128131
C 0.3284996113951359 4.427279067726493 -2.432017530413659
Cl -0.7771186668167287 5.567150740960214 -3.186334645377974
C 0.9618427463910904 3.4235516146417124 -3.1770796111540744
Cl 0.6731365527324927 3.25586103476438 -4.903962692481379
C 1.828791877759201 2.5245924725491373 -2.5452147610873435
C 4.09377905272232 2.3973802069685006 0.3565692541761658
C 5.1344313931906775 1.5049818893593434 1.0503200309941665
C 5.754721409627757 0.5089636862307445 0.07342574882224409
N 4.701751495656143 -0.20421201092999897 -0.6552368446919853
C 4.919871122571934 -1.5689468025589308 -1.0608428284213935
O 4.781567492161301 -1.8834565527773033 -2.27450234447879
C 5.29623111948993 -2.615325227310672 -0.08025085477760159
C 5.9607774448502795 -3.779486021873211 -0.506889017788636
C 6.306090988908327 -4.774625244139042 0.4127021242744079
C 5.984106995720453 -4.62276588729824 1.7631667448592105
C 5.313462878722961 -3.4767237017869874 2.19663381443617
C 4.968200685942988 -2.478087510330739 1.2809008955509782
C 3.7140226678143513 0.612482839178452 -1.3719061479120853
C -2.2288760320180554 -1.4577099683419446 1.4865768778648107
S -5.459450579153623 0.5469777848674944 0.10859956430337699
O -5.5403509340199 1.5964959478616443 1.1840936814525695
O -4.809007036905092 1.1552802643498947 -1.1024629563079356
C -7.084324080235522 0.03462902543277694 -0.3461668986495406
C -8.19830958652875 0.42684404029709694 0.41225492201310476
C -9.479344655798293 -0.002294633261908295 0.051338367146015224
C -9.654209839967328 -0.8256305091887259 -1.0651533654189842
C -8.547190601782585 -1.2216188634055976 -1.8214377839260434
C -7.264534198642226 -0.7941023428885906 -1.4628083473754039
H -6.233393691321075 -1.8919201033469275 1.3569018390872283
H -5.5166570307125 -0.7638938348352239 2.5819899605396515
H -4.719077370907171 -2.334143900038394 2.1778408246022978
H -3.31155395414831 0.39564012091859374 2.0358413843049914
H -2.628842937860869 -0.10048907309190795 -0.9140950833556217
H -1.875965275478667 1.1092798245300175 0.2596684984211437
H -0.2993545326863935 0.36800463063388456 1.8134898366016652
H 0.46678281795068083 -1.2479138844581983 1.6274988875809724
H 0.3218439890346363 0.8042385098863 -0.6490575735639772
H 1.2111418906046276 -0.7565247360900267 -0.6360918133009671
H 2.717951706592911 0.017717516598708034 1.1215126154235284
H 1.7629044105799612 1.4874566322813385 1.412969563068444
H 1.5583090587857429 3.722504961024635 0.6402275906566749
H 0.0696327127949344 5.287179777829643 -0.47638882492089296
H 2.2721147927871357 1.7546220167627564 -3.1573079420604833
H 3.649411087449633 3.0508993598422403 1.135328096797316
H 4.624643992513294 3.0633293042341743 -0.3601346307033865
H 5.93785747225948 2.1442831417376937 1.474972563467068
H 4.668322295688765 0.9586035365052811 1.896539678532955
H 6.398798047525041 1.0500473792685316 -0.6529855678146984
H 6.402142149761823 -0.1939070968743683 0.640463219329413
H 6.221367515345429 -3.9150950043644883 -1.548797436158459
H 6.821072010357628 -5.66498483354986 0.07733878678702809
H 6.250954086062466 -5.394550704543445 2.473004547545693
H 5.056836446624792 -3.36340851724395 3.2425863531769883
H 4.434418031665313 -1.6069936508537126 1.6358008101911212
H 4.252865110015913 1.1837346085402818 -2.1605469666642487
H 2.9737323719101085 -0.04127814325357843 -1.8802168405521313
H -2.6013500746406883 -2.4693820522049528 1.2163401302023926
H -1.8391025484267398 -1.4196440076707142 2.5304076789749423
H -8.07888775861867 1.0588018614940093 1.2825626325266213
H -10.336382717534896 0.3023141667175367 0.6374645453011764
H -10.646497288378308 -1.1588154650496443 -1.3421968024969402
H -8.68249869138043 -1.8617136820421105 -2.6834605602632355
H -6.412925795374068 -1.1112522037570598 -2.0510079890307273
