45
040960
C 2.8244706314460317 -1.776116157537184 -1.901388342419657
C 2.7704849885223157 -1.128979371182127 -0.7387530023116402
C 3.891953106628728 -0.8578632183107822 0.15433313109559182
O 5.05377091223763 -1.3291687787787563 0.039376812503864975
O 3.4995331137035937 -0.00821314326585013 1.1845844925287248
C 2.223479411151051 0.5434097831443729 0.8562586398877791
C 2.531564243376775 1.8542720614028576 0.07922971750718955
C 1.3299251093388647 0.8260832897111213 2.0731196976064297
C -0.11974921048085592 1.149318390662417 1.6231129100557804
C -0.7425357390652093 0.04447990227529202 0.7088067940137878
C -2.2837897898506667 0.2403372944019988 0.3936633719609016
C -2.6442403058215507 1.7039698165578367 0.04069666540196866
C -3.117724066468517 -0.14718421712647892 1.6442364653868944
C -2.729102604593313 -0.6776310625533417 -0.7877893858156721
C -1.8983361793128277 -1.9594827949635456 -0.8730057148149576
C -0.41610029958304345 -1.6700808101098368 -1.1799311154709204
C 0.15018192991323218 -0.3448256269044647 -0.5456746891922961
C 0.17901676184006135 0.7529647710662337 -1.64140466745144
C 1.5868221102027356 -0.6082912199889305 0.025424869881524932
H 1.942632982768489 -1.9531669550980542 -2.493688811306575
H 3.774443048377449 -2.1212920689678714 -2.288216732014209
H 3.3678880725670663 2.387028474501168 0.5808900348125414
H 2.8569077701909955 1.641212964606934 -0.9602531491918727
H 1.6997074897707805 2.5783223506523654 0.06065393478487665
H 1.7385122261244308 1.6787780429233194 2.6578142336588977
H 1.3168114414367507 -0.06096659738323217 2.743870256706329
H -0.7291463287919658 1.2575853982359264 2.5435496323771027
H -0.15185600916751946 2.132821668844373 1.1175425192420525
H -0.7017529587932573 -0.861461420982666 1.3583236931970062
H -2.0645542259804697 2.07534090831011 -0.8247001979226984
H -3.720795866512054 1.7804061931019637 -0.22618026471851344
H -2.471625885317477 2.3833077555448328 0.901764054836357
H -2.944040094694334 -1.2068965764844353 1.9284250072627298
H -2.8646199807487243 0.4915764030024821 2.5149750199203664
H -4.205209554983583 -0.022676097197743456 1.4494631399048992
H -2.6610463969434215 -0.14978821309099408 -1.7615159429849105
H -3.8016756766029816 -0.9562889697537291 -0.6894216366873123
H -1.9812250320791163 -2.5183060145788856 0.0844596402326959
H -2.3153029997564194 -2.6148185553626706 -1.6685008719453382
H -0.2996896586274005 -1.653246308740696 -2.2857817995514123
H 0.1583722920465086 -2.5565602694476968 -0.83250069256367
H 0.1702491847288591 1.7707720934921585 -1.2205040441977484
H 1.0738074389293892 0.6370344932909555 -2.287890808239577
H -0.6975002226871688 0.6928642858435452 -2.31413363492712
H 1.421084821560137 -1.4385818937622903 0.7566607689612479
