22
040905
O -3.959311921435617 -1.090867573774708 -0.01405495512148046
C -2.8743274341197855 -0.5827140380355025 -0.40068276718933143
C -2.0369459358706927 0.31633098341326016 0.39446824070108777
C -0.8896714998799707 0.6318003447885117 -0.5991794176909616
C 0.4793082332037183 0.3810146536590616 0.012369248815980841
C 1.4010699051389819 1.4353912442660275 0.14231751651380808
C 2.661201586614294 1.207869813523714 0.7044033612177565
C 3.013676036905616 -0.07137860792814792 1.1412889186191997
C 2.106751813466299 -1.126467502273839 1.0170063386840151
C 0.8457655927257604 -0.9043843635367815 0.45578859294674623
N -1.0981111752264814 -0.15064572214150224 -1.8456873565982879
N -2.3142455333216287 -0.8216469364392273 -1.664839031148963
H -1.6927315429779275 -0.20161543723608813 1.3155033062831347
H -2.603363569886723 1.234553627730481 0.6612255958695209
H -0.9761030813424255 1.7068128736863744 -0.8733318250244847
H 1.1467508236938897 2.4340107210082356 -0.19023924762115632
H 3.365045448594325 2.024422061228551 0.8012571625660826
H 3.989553020793293 -0.24500257022727231 1.5760097783583187
H 2.380767767169594 -2.1172728805802663 1.3556697815799674
H 0.15401085280840407 -1.7328899053830173 0.36643837963332715
H -0.36242948642524975 -0.8850345950202811 -1.9649860604653437
H -2.736659900627674 -1.4422861907275832 -2.390745560928936
