37
041325
C 5.119076145995144 1.4477924984061425 -0.21122824387040418
O 3.6997847820186105 1.433887645761958 -0.10337176439711768
C 2.939350202620327 0.27689888286748054 0.11559878211159036
C 3.5120763394249206 -1.009434743811698 0.25674658193901206
C 2.692895169866546 -2.1390015839410275 0.4628640647791568
C 1.2967259548424115 -2.005411122599611 0.5282478351904402
C 0.7516967961574544 -0.72632281987311 0.4264999053094304
C 1.5519536083853613 0.3798946017437844 0.20543508103530006
O 0.7912109032863076 1.5404450149913531 0.1081842199920682
C -0.49445246166206175 1.1854404073341762 0.599220423916776
C -1.7032875260335987 2.0174532352703425 0.2276647736577657
N -2.9126934828340096 1.418883681109548 0.8493916637153712
C -3.0516051600341934 -0.0710265720077952 0.7879044231064761
C -3.5382669471358072 -0.5533530055939424 -0.5900928921271678
C -2.499771849415151 -0.3433453471930665 -1.699444230286541
C -1.0364995140825672 -0.5991227421967953 -1.2648510252857519
C -0.6702104660566641 -0.2997635362147605 0.23217381044391516
C -1.7516193793269412 -0.8331933114159478 1.161775661097848
H 5.57690276313816 1.07485540586499 0.7292712330774459
H 5.442780188270317 0.8204146146872229 -1.0684651688007534
H 5.459515799178585 2.4892326280970685 -0.3839897154481035
H 4.582888659409815 -1.1493240337491337 0.20025801870265117
H 3.1421120339014634 -3.119859134419235 0.5488568193323824
H 0.6602085972733073 -2.8742851482052156 0.6323376980688739
H -0.41767934548551805 1.2817893740201498 1.712247701839214
H -1.8024821080332913 2.143751950708969 -0.8638646973904638
H -1.5654145786608193 3.0394531004215395 0.6410067735234267
H -3.76219232896699 1.8713874390985314 0.43840551328644334
H -3.8270690490465133 -0.3642362366383205 1.5287996384524687
H -3.774635084947105 -1.6386523606718242 -0.5250544801040863
H -4.482563923486062 -0.03434608198594777 -0.8630299056066887
H -2.613341633001254 0.667113403138544 -2.1359658265748234
H -2.7431721140350325 -1.0316837649664568 -2.5383118198308976
H -0.830832753909766 -1.6767524897882558 -1.4545044460185659
H -0.36501288602064036 -0.027966782391913983 -1.9435389921145412
H -1.4973647491496123 -0.6622157720224091 2.2313386006632423
H -1.8790106024451245 -1.929397293835334 1.021483984614607
