42
042536
C -6.235610689857841 2.521770253647887 -0.8926916974476834
O -5.028206847394701 2.144377171661682 -1.546274892794403
C -4.045921954683127 1.318536715703305 -0.9797469409800446
C -2.9047956345014976 1.0277346228060378 -1.7353921414688507
C -1.8970566529095105 0.20988653412157424 -1.216456015515763
C -2.018101808474157 -0.3332506073104361 0.07489234230832739
C -0.9647982025127632 -1.1922410989849446 0.6501464887717683
N 0.09119030323043555 -1.504469365577057 -0.04057706679316047
C 1.217685179566568 -2.3183933812345128 0.4331308960227756
C 0.7352779153315927 -3.6232879994291536 1.1019004209927987
O 1.8061386926919336 -4.507863460387859 1.2972629558758475
C 2.1939214355545755 -1.512352700292684 1.334229632335631
O 1.6240552039893437 -1.1492472142955146 2.569461231363928
C 2.796837987443768 -0.3169967159757172 0.6065055996508066
C 4.113737398135812 -0.39295200453368717 0.11997015598915801
C 4.680514157886092 0.677760445556582 -0.57662863477419
C 3.9399818362340997 1.8485851195085508 -0.8127937970885343
N 4.5194540297873225 2.9529820574677665 -1.5314474642389828
O 5.692298975052984 2.891995274868596 -1.9554717703211182
O 3.789921175997712 4.096767428972032 -1.762694767460215
C 2.6199085505129616 1.922494333155167 -0.3398512216711259
C 2.0529645688342306 0.852669313556189 0.35809655345751334
C -3.160807311523629 -0.04072128882841111 0.8343433894905834
C -4.16833692943132 0.7771086293583894 0.3138009451411881
H -6.006777488367789 3.0848804657057594 0.03670491918557038
H -6.824489558285218 3.1754347742208413 -1.5681901806074798
H -6.83900546860469 1.6202935811646628 -0.655017775412558
H -2.798010836026926 1.439381153600054 -2.7310956752495295
H -1.0243780236629156 0.006849872367370476 -1.824542221487028
H -1.080890665027384 -1.5519471587819436 1.664895039716208
H 1.791102045390473 -2.615939063461486 -0.47267425337100055
H 0.2782053150965088 -3.4058014512890447 2.089625411200701
H -0.04510891746097584 -4.106543704813156 0.47032289011703626
H 2.0133628683424143 -4.904712386390267 0.41111855822761173
H 3.027496962093902 -2.204627231361857 1.5848178643058135
H 0.912945847767706 -0.48101287646772267 2.4104986246061673
H 4.707325532458221 -1.2851349487358803 0.27661064037772704
H 5.698284490841547 0.5873554889707252 -0.9340092773366093
H 2.0211948337166286 2.8074241862823155 -0.5127001656736314
H 1.0293010598846055 0.9465852233884693 0.6921950182473114
H -3.2742798697595834 -0.44571911555025673 1.832713063244118
H -5.036529507357409 0.982341127617629 0.9250133190633182
