33
043744
O -1.2797770767036132 -2.09997606879928 -0.7515430574102052
C -1.2164049677521411 -0.8842298482026281 -0.4267633972819046
N -0.3683756424628438 0.056879954220795455 -1.0737585562251573
C 0.7755543227178795 -0.26249779844438825 -1.9273185608076602
C 1.9791190485431593 -0.5877104265592642 -1.084242426166869
C 2.1602029375693426 -1.8867661252756884 -0.5823547115917812
C 3.2561931794138808 -2.180307309677804 0.23383446160754054
C 4.174925944155906 -1.1796541202981097 0.560835596562192
C 4.0007135891007835 0.11984315210466615 0.07420132699582077
O 4.9217857089803365 1.109053798326593 0.411294367614124
C 2.9020942852189653 0.41577414140521135 -0.7455082863362775
C -0.6097515037179457 1.2757299484241231 -0.3806557466053073
S 0.008747579158748915 2.7223192672564935 -0.8434542306279972
N -1.6137170176908462 1.140279521578159 0.6281507147638861
C -2.753116874435612 2.0363841766330193 0.7506861669764513
C -3.9645611295548213 1.1274257147515283 0.9508922707546235
C -3.5161776599139154 -0.2658715778644229 0.5069815936290928
C -1.996905670559547 -0.26030118826398696 0.6948687041679334
O -1.617285280210667 -0.7905483021405595 1.9391155867471666
H 0.5237055940300023 -1.1263118677549242 -2.5799999813987715
H 0.9920600634409431 0.5930990387160444 -2.6024713807147064
H 1.4539700220639362 -2.6713814215777885 -0.8226874195060966
H 3.3920633553488666 -3.1839873460359573 0.6154745820875962
H 5.021173746908668 -1.4130034887632656 1.1944074605657784
H 4.823580132480997 2.0603848859082934 0.07630013010664898
H 2.7700057740290744 1.4240637736095254 -1.1171938997314579
H -2.6128712993398664 2.7162278111278075 1.6177881378846168
H -2.882421177142447 2.634046956635907 -0.17846672010230605
H -4.237007890246684 1.102341982271869 2.028981672572132
H -4.838957256206569 1.477656702538722 0.3605595417038848
H -4.013547422318145 -1.0600870252543877 1.1049619234543868
H -3.7764230928377946 -0.40502088424684207 -0.5661565914873277
H -1.8585943220680257 -1.7538560263494616 1.9332407277999508
