77
043986
C 4.753215152587929 0.2689596708746583 2.862173881132251
C 5.636401282391475 0.26481584235193584 1.590492633738138
C 6.072325572731861 1.7233227529159951 1.3122915129774835
C 6.893799390755911 -0.5955823415524909 1.9018504712730777
O 7.843116991570678 -0.5079199125290953 0.8734493501226392
C 4.808316835517627 -0.3633034586785178 0.4066605023069733
N 3.522722738971483 0.33123842067029907 0.21866509124272093
C 2.2485661796974656 -0.30423849774657885 0.425425214655212
O 2.2082674558392594 -1.5500515907277228 0.6178010013342259
N 1.0066016302306968 0.4397844803048335 0.4376940161578906
C -0.26107336579090673 -0.2465333239830465 0.7507382103930191
C -1.2405065352872158 0.8550005531430165 0.7523845530115316
C -2.546005724290008 0.9559712598065602 0.3248706989475621
N -3.4975542892672142 -0.11627187080589414 0.30226412686672455
C -4.821654989870439 0.004828156941359835 -0.2496684560763927
O -5.118237578724908 1.0225249131173673 -0.9331849513049355
C -5.857794592092255 -1.0926567611121367 -0.02860698046225307
Si -7.57966276110103 -0.7233557660978752 -0.7742055422145705
C -8.80382136368349 -2.087608005669054 -0.3832414317163082
C -7.447491778683915 -0.5954600489968376 -2.6344563940070134
C -8.258109768004937 0.8786039692804358 -0.08655323553822875
C -5.341902564367345 -2.4847537076473567 -0.42149817027140246
C -5.439798927541876 -2.933299089013888 1.0324754821688225
C -5.937411135489162 -1.5496701938210693 1.4360800920252308
N -2.7408792838551803 2.178785282561008 -0.222044798384731
N -1.5813115773550148 2.8243251469559616 -0.1724445394366013
C -0.6726250126187383 2.0227064356262123 0.41503549347840596
C 0.7942970794342297 1.8884702248009153 0.16870358912382188
C 1.5383086625929085 2.788396789209138 1.1738149113858973
C 1.113212779674438 2.2388455232745232 -1.2975991434199277
C 5.555564422529591 -0.44365056721136725 -0.9205332337800006
C 5.686104213512666 0.6764023224871833 -1.7685067515742592
C 6.384134457218717 0.5757417073894153 -2.97538699968849
C 6.956604466894446 -0.639310922277183 -3.3560396997578232
C 6.833378246039828 -1.7580647284665272 -2.529826672911316
F 7.390477063944462 -2.937404579459711 -2.90112535931609
C 6.13546862195438 -1.6640604955258667 -1.3217817431496717
H 3.8690839723309645 0.9298178028129653 2.7338772593545726
H 4.394270075867989 -0.7572354758776659 3.095256489036996
H 5.3217519220750935 0.6429373749578191 3.7416294321236396
H 6.617225546500281 2.137292144454137 2.1889113905759667
H 5.197238727574829 2.3793040815015267 1.1267728274904871
H 6.75777049085468 1.7861879507912088 0.4431808801130148
H 6.596596262813038 -1.6594505849604095 2.045570621250481
H 7.365776081231246 -0.24701284146657035 2.849070578189639
H 8.591591102539608 -1.106537041141178 1.134086066660759
H 4.594026250742671 -1.4100336151981683 0.7175875399477466
H 3.5555859559213085 1.3277024136860953 -0.05423947926454612
H -0.21641319446245702 -0.7218410250558958 1.7541174469974399
H -0.5026376767165559 -0.9902772368487861 -0.03933162144569937
H -3.2103634714920055 -1.0168742541215414 0.7482198358235032
H -9.766156408447465 -1.8696164374899833 -0.8914236868726988
H -8.414538820829407 -3.060016516479016 -0.7469253617339472
H -8.977632144409062 -2.1405358538261097 0.7103079297600625
H -7.078583332795738 -1.5600287364081364 -3.041274311820243
H -6.745142688801012 0.21724815957303553 -2.913094054102608
H -8.447810109410696 -0.38016803164763574 -3.0616488366189265
H -8.301494564041883 0.8168090842008758 1.019606032464311
H -7.609578465706193 1.7268607477585889 -0.3859917373275496
H -9.27854301892368 1.0423991765283018 -0.48787523099905983
H -4.293441358169568 -2.497321191939685 -0.7942003835830468
H -6.021664769764006 -3.0648987427239263 -1.0822921084300774
H -6.210336718329667 -3.721180905997252 1.1819520001036559
H -4.448435525735326 -3.178624433316569 1.4739020133585263
H -5.227496526703683 -1.034318656510672 2.1206123931261445
H -6.964603648088331 -1.5825485332747748 1.8590015676029918
H -1.3995960217722496 3.740535845786539 -0.6378620379493316
H 2.581708049312921 2.989904910295592 0.8714024142855854
H 1.041488808919049 3.7802934277333637 1.2479919890234659
H 1.5385490558390789 2.3231380702274422 2.1821996579466165
H 0.5086813575438526 1.6072475908326 -1.9851360629804262
H 2.1790667878327197 2.079886716550569 -1.5447556630402792
H 0.8784304213198504 3.3061710548478844 -1.4986416154812445
H 5.257785733592206 1.633367566357527 -1.5024999297988528
H 6.482767635194047 1.4429098472624242 -3.616177488335109
H 7.494703209983692 -0.7133597409415613 -4.292840532466012
H 6.055329020543422 -2.543661701321561 -0.6952129523175653
