93
044169
C -2.372760194219314 0.2882738527765728 5.422808941418043
C -1.6385922866402376 1.2701438978181327 4.86914718071484
C -0.9882030524214521 2.2820181806239304 5.781568738061738
C -1.4855049115711483 1.3896641379652976 3.352312735044902
C -2.852007379749349 1.6541804440838033 2.6774019287399953
C -3.578250976806833 2.8371344904998717 3.277420744621799
C -3.4260910278300396 4.120595090757967 2.8756477948037666
C -4.2334817920949135 5.188483006681623 3.5658609140482347
C -2.488142709809709 4.507702042675445 1.7578291247589029
C -0.7332563218519056 0.13498909508465706 2.8001914596292803
C -0.47450558334539444 -0.009892569596100239 1.2553852915336097
C -1.7272338292855813 -0.4358007494458294 0.5068254594657455
C -1.636882848164123 -0.9490880702188399 -0.7354579620719033
C -2.858887584741669 -1.370570974475074 -1.4630325731997864
O -3.9154828427325556 -0.6919873825781975 -1.3427788891064436
C -2.868496204219607 -2.578303073070403 -2.3206818775848532
C -2.142209120639183 -3.723950546765551 -1.9496962983227262
C -2.134967713799869 -4.854027119572953 -2.769916200267947
C -2.8584691197823426 -4.86104594563867 -3.9664934022334752
O -2.821775491033811 -5.998164669328169 -4.773147090922633
C -3.607375360040107 -3.7307922845034716 -4.3372374272697485
O -4.348524474651006 -3.7388125913552956 -5.520189506358568
C -3.613948833032675 -2.5984105904135846 -3.5090287942991165
C -0.28867691080721286 -1.1582358766689769 -1.3376428478818865
O -0.2066614660870223 -1.2878472625177486 -2.590273911637425
C 0.9782150729586837 -1.2638495802813545 -0.4567312462741587
C 1.5561227807451865 -2.7207625113209004 -0.6301580497230979
C 1.9457620192513931 -3.1460309532325454 -2.0323039455840055
C 2.1599719568162548 -4.4336128188024055 -2.383210982853768
C 2.4868070637739823 -4.742458917551301 -3.821149245364703
C 2.067390222969091 -5.558745246972251 -1.3812906415922983
C 0.49902277315933935 -1.1439901436677296 0.9873687422276541
O 0.909444829967962 -1.8766258743603625 1.8804740951143573
C 2.002627493508452 -0.023160664950036287 -0.6739339092362793
C 1.988334475844801 0.5015754748486282 -2.1362179346585153
C 3.4549668183817195 -0.4912122285895547 -0.38238200860177535
C 1.6551350388092414 1.190170549886091 0.3297102708219106
C 2.179009038624244 2.606765891576236 -0.05929386500077397
C 3.6816897712098107 2.7264698843919453 0.018173347019102518
C 4.436496452235284 3.4577850708394506 -0.8291877122047864
C 5.9270188118724745 3.4944139706634636 -0.6130004823146211
C 3.8356222254767003 4.24363126446641 -1.9691717715518058
C 0.12428538468485496 1.2855815976058225 0.5964625993935185
H -2.4857791574952794 0.22489369870369524 6.5006076101285775
H -2.8727764859656277 -0.45836342608926695 4.814178211473599
H -0.29319281645000184 1.7712211492555046 6.480480223333226
H -0.415899212633646 3.04122327756185 5.212047805218957
H -1.7723586496365449 2.8074015414997477 6.371141653237669
H -0.8501142667983337 2.27538643012354 3.165400132739742
H -2.720160677561454 1.8212144276553617 1.591012963550728
H -3.5012833662052416 0.7619918219129559 2.802208509805934
H -4.286730300322021 2.614017556769475 4.074903801043372
H -5.318722951184277 4.948343516672207 3.4940811437803085
H -3.942514243225095 5.239984727013327 4.638614761967232
H -4.076712040213485 6.187356744511831 3.1007061944458076
H -2.7936525129255365 4.014658275799042 0.8126001537114874
H -2.4982828632996625 5.603575032657268 1.5833668238900438
H -1.4468533068354088 4.219645631712397 2.013844138289047
H 0.2556651549067912 0.12178725926964427 3.31442414647723
H -1.261732240800554 -0.7830168473738538 3.1343927470526167
H -2.6922279904078406 -0.40478819417886086 0.9873496744398413
H -1.5873762050733438 -3.7481141492101564 -1.0196435726789492
H -1.573073799343426 -5.730235605961788 -2.470269268657953
H -3.2925297675285856 -6.040982513245969 -5.666279079977865
H -4.90531325015682 -2.939177397461503 -5.802202267076721
H -4.177395958616196 -1.7227876314296917 -3.8074310584238056
H 2.422639124876823 -2.8920792439564753 0.04203937685133878
H 0.7641661202459549 -3.4212497168517393 -0.2825303574345064
H 2.028736921124455 -2.4050114569054166 -2.81137661530807
H 1.6733019845938646 -4.36808041001956 -4.48030102744439
H 3.4408699348566305 -4.246381982006411 -4.104991906811071
H 2.5892693751575884 -5.836001422802478 -3.9953124215110694
H 2.7650026923055093 -5.373129815851092 -0.5379326613781839
H 2.3327169216845345 -6.534958167704867 -1.8396636667215824
H 1.028722350145142 -5.643360754870293 -0.9960416411975856
H 1.0222727006086996 0.9941375508783683 -2.374838251138012
H 2.174883832650677 -0.2969367028263444 -2.869828270594234
H 2.8018589259532694 1.236168679639709 -2.3090655775681905
H 3.7674295615366655 -1.2960937337647578 -1.079216677663105
H 3.551155826582166 -0.8543826118087221 0.662434443837983
H 4.193246495357733 0.3151361879413206 -0.5317357628394314
H 2.111043113825345 0.9634906692366156 1.3214035159763122
H 1.7725072148995102 2.912779419091516 -1.0425106401484519
H 1.7874756363487192 3.3483725101618167 0.6703602232982044
H 4.167535607022389 2.2476456708623624 0.865337883864871
H 6.338219673585796 2.462318043005779 -0.6486784643704491
H 6.443005369333168 4.097106658414115 -1.3899186218166868
H 6.152096493805814 3.9442627704772693 0.37668583174931514
H 4.607687892949646 4.836609184538356 -2.5019258250186147
H 3.3650185460924456 3.5557780470775278 -2.700293752428754
H 3.0768244693881504 4.954319084243187 -1.5760328697177188
H -0.0829225184431858 2.177969605713515 1.2117700960446443
H -0.37328155364833987 1.5041373145519252 -0.37435259958298833
