32
044300
C -0.9297058922657804 -3.0300135520833127 0.6324849361739523
C -0.23958253464146254 -1.7648459550355464 0.11965445079420951
C 1.2422462433297048 -2.043904059226772 -0.18553742634500975
C 1.872029136002951 -0.8927345540443626 -0.9277664945824237
O 1.7901496481023236 -0.882286748288273 -2.185964252470979
N 2.4696624859092986 0.2347417261974637 -0.2591913516967377
C 2.698683775257864 1.527965186021286 -0.8943038648017314
C 3.3122674731642805 2.4265493715240534 0.20466889247728856
O 3.44950821970567 1.592103260978974 1.347344411718593
C 2.9627027404796062 0.33775985927091373 1.065848973312216
O 2.998465987626505 -0.6099123929212774 1.892297592588584
S -0.3922193638257081 -0.4438267860726334 1.3844484805411856
C -1.885940725664966 0.26740692223775686 0.6969563605959789
C -1.8035607377917766 1.2776761312291893 -0.2672416271491931
C -2.9798010513181423 1.8178250530918731 -0.7911027258953375
C -4.217657586056265 1.3482597939933978 -0.346533955549552
C -4.258850553174336 0.340835123669402 0.620927451814268
N -3.1021089495132323 -0.17321490252741592 1.1186121458473681
H -0.44949731749839084 -3.382923960777453 1.5702899319157437
H -0.8709473590909457 -3.836485152325667 -0.1292047596509152
H -2.00193998376628 -2.824174181566868 0.8343016274694045
H -0.7388687734272942 -1.4600799924700802 -0.8275801653356839
H 1.7916311730733077 -2.2929731608663757 0.7412544859353754
H 1.3143564842816478 -2.9454493953782657 -0.8334272530848752
H 3.4063320751090225 1.4130778975248905 -1.743754546714865
H 1.7363668787836124 1.950793397508011 -1.2555981988179745
H 4.308164483477045 2.8093235222382074 -0.10457002586640941
H 2.636301550122374 3.2757627171607315 0.44159930289325167
H -0.8409513665424032 1.6362073126324015 -0.6090521670192887
H -2.9322033005941934 2.598114869096287 -1.539597106249013
H -5.134944799354184 1.7606499474974049 -0.7463580264028303
H -5.210088059899857 -0.032227298287942206 0.9760949035554003
