44
045487
C 7.909129958006972 -2.350367159216801 1.7150082541901486
C 6.969460033634799 -1.6034204597613435 1.8271123781019185
C 5.847369065134308 -0.7115622470094877 1.960873462407313
C 5.819699958360793 0.23219387861241306 2.9920713725651664
C 4.722598913050302 1.0878134524462617 3.1042610931722177
N 3.6957769749482585 0.9992747502784012 2.2177741078887867
C 3.6920801522610365 0.09028853829420157 1.202043765814173
N 2.591776388563984 0.019849626046624616 0.2776638828023786
C 1.42480603849698 0.8566681605218719 0.33461858012815004
O 1.2938008529108584 1.711468939655622 1.2524993257244506
N 0.3867353463198336 0.6852237157949613 -0.6419201790309278
C -0.7387802596732781 1.5690269138388815 -0.7735810282199539
C -0.5962619292525092 2.9691549743760266 -0.6435274169380941
C -1.7011060660136499 3.8237167700752677 -0.8263478259640221
C -2.958674454385596 3.298249217011098 -1.1562329486448575
C -3.0759812196698504 1.9178967002144538 -1.2949301511209261
C -2.006484789893649 1.0649049820293295 -1.1053102820552083
C -2.432261971890816 -0.3713221610234902 -1.3121094193547387
C -2.3021944527359124 -1.217525983667098 -0.034307183816205046
C -3.08520020032978 -2.5537044516741187 -0.11438395599012004
C -4.020814088404576 -2.68020374830301 -1.3346531458044117
C -4.785972495989269 -1.379997139234661 -1.6033754394232305
N -3.851711261537563 -0.25886851142878925 -1.6679801403563081
C -4.222594535625472 1.1139805245484045 -1.6350750891175188
O -5.389087022334518 1.541044528841465 -1.8437286379359001
C 4.779361546530296 -0.7848652151767735 1.0596600983287088
H 8.733969175633145 -3.006031086649044 1.6165945847742735
H 6.636182924020931 0.3056076976411372 3.7003679476146054
H 4.686837188323648 1.8233548242562145 3.8966878090809907
H 2.6407579796907146 -0.6847088544934649 -0.4928208088145396
H 0.41478270930051053 -0.17191294508253116 -1.2383827313019256
H 0.3703850563915485 3.4054639707981345 -0.4297185186524836
H -1.5760556976541018 4.893946957174079 -0.7249983427809614
H -3.8102788922739883 3.9490915711699293 -1.3063807899765407
H -1.8658359587208522 -0.828898581772371 -2.1520978713987793
H -2.6919417944910573 -0.6314597713524629 0.8280722128197868
H -1.2304790711513525 -1.428359622478845 0.16820163049270256
H -2.365216829296842 -3.400518145183282 -0.13691107396196617
H -3.6906257043590402 -2.6704368312243543 0.8112053985702583
H -4.7413729608672694 -3.509820084492188 -1.1687465845185174
H -3.415153424960204 -2.933624470272648 -2.2324251484223074
H -5.334248421502453 -1.461591949405819 -2.56586745340947
H -5.519061117478197 -1.2059110123202905 -0.7859519470230376
H 4.79188435891287 -1.5131102624019044 0.2570482095569195
