65
046102
C -0.18899820776204398 -3.854540266421409 -1.5802504031126752
C -1.2372827706809537 -3.0315412794244323 -2.26532956468403
O -1.92270551713967 -3.559200591256588 -3.182608013446373
N -1.4589907396172528 -1.6535823495863138 -1.9114493800711942
C -2.4672635356282213 -0.8368656154253178 -2.562595060686034
C -2.3092585181974723 0.5642994791560999 -1.9873375280899117
C -1.5041188934209013 0.4045544062429338 -0.6625654439990615
C -2.539017662921986 0.4053575772488999 0.47280112560096654
C -3.180685347964713 -0.7603499246323384 0.9521287727657199
C -4.206621224311357 -0.6682357513027319 1.8967240106266925
C -4.6504660110380645 0.5803415644829315 2.3315425894389636
C -4.085242847141661 1.7416754830219598 1.8053514504380415
C -3.0417510469208366 1.6564037482363891 0.8741455741879837
N -2.5258317409827646 2.841662575396741 0.26154539185816333
C -1.1076269105749081 2.9542318380835 -0.07861463033906876
N -0.40339188178805346 3.442670882071494 1.1042495173873206
C -0.4969127096050589 4.799827186257404 1.5628804963581981
O 0.24603485188551433 5.235191687499079 2.480049379366232
C 0.38245595816345224 2.3885342619325964 1.639931015561025
C 1.1004263908006349 2.3929914026938244 2.841297970603779
C 1.8965640847079928 1.284735429911427 3.1491034051268616
C 2.0050625719453814 0.21943463202117472 2.242930878683702
C 1.2899764178807975 0.23117976808683738 1.0262677088366126
C 0.39868946555893775 1.2997460847006015 0.7999094921873497
C -0.44836121624774766 1.5605250313193122 -0.4266803268888329
C 0.5403845458254717 1.6762533629122442 -1.6142296495742279
C 0.9317898082186693 0.2899500146250271 -2.156329333875954
N 0.6714585330371997 -0.8063001880147916 -1.1903912852898673
C -0.7628406619883975 -0.9587190754606273 -0.8366024126111969
C 1.5594085338141515 -0.8604032346167876 0.0028247675663323722
C 3.0528819830644283 -0.8378503654061207 -0.40383364801785443
O 3.347354477198533 -1.839574052093473 -1.358570177599771
C 3.955500738918842 -1.9906231357745723 -0.09690372038109599
C 3.4615641094064626 -3.2479790935745316 0.6282298866323655
C 5.460950443352402 -1.732570687849558 -0.15298959312560223
H -0.3425113636459063 -3.8328333160235326 -0.48178125788809506
H -0.2417909831193441 -4.910942433605727 -1.9191584051715307
H 0.8173903368090284 -3.4567445547468734 -1.8241113429837468
H -2.307928010188571 -0.8287327082687017 -3.6629284215961615
H -3.477050653839016 -1.2398864152890765 -2.3307099847329704
H -1.7865843382671283 1.1918441740913317 -2.7330557968355524
H -3.3085885600204494 1.032707127612496 -1.8434942620276435
H -2.931928176624138 -1.7437744468266816 0.5818646811090438
H -4.678630265816199 -1.5676628454763613 2.270757835604709
H -5.454901915788552 0.6480973966965339 3.0524721119521168
H -4.463739796727147 2.7075811322171344 2.115155026012125
H -3.0797802888430486 3.7255425967810196 0.32823686115252676
H -0.9921807852000203 3.6788188763922056 -0.9145475674808998
H -1.2036341444645318 5.4739300489527505 1.0968949708131726
H 1.052103334828146 3.218081689833827 3.535274073019954
H 2.4582573615141645 1.2647578559675479 4.074042746378655
H 2.6729026387020096 -0.6003388833416199 2.475699490751967
H 0.11019455524888 2.2817937492426035 -2.439853050888481
H 1.4609159720040752 2.2214649952971617 -1.3035044619162572
H 1.991290191222321 0.29571395797348676 -2.4834431372917476
H 0.3556965097271557 0.0872721634861829 -3.084691727245584
H -0.8431997171115648 -1.5661992178416182 0.08814599787756001
H 1.3458688522137179 -1.812965032437172 0.5265137934587342
H 3.5196819938828967 0.13097615545783647 -0.6845204847566065
H 4.258491347100001 -4.020830483651743 0.635410391504673
H 2.574039974909061 -3.690865739848591 0.12814804184855863
H 3.2092322107641924 -2.9966507791331805 1.6791847565292382
H 5.977684545437038 -2.6192023201961625 -0.5766285442041981
H 5.705465378157705 -0.8512058580360158 -0.7841977465533869
H 5.840098327288425 -1.5509776903399441 0.8741921521262709
