73
046104
C 8.866180074951341 1.8418660332741605 -0.7916482514254554
C 7.592004226914962 1.0966840627241163 -1.0259563380204875
C 6.44210571643285 1.521100386244826 -0.4990403127144355
C 5.186023672238488 0.7873375119140897 -0.7268040162407945
C 4.034398782554311 1.2171848453193301 -0.20043882652398434
C 2.755378965536229 0.5017089583542211 -0.4103935041670315
O 2.7337117476271526 -0.5411154338108017 -1.1210317071936724
N 1.5303847946679663 0.9765266487575389 0.18124376699053413
C 1.432884779268127 2.161448865237653 1.0164760804952746
C -0.014107407548322211 2.227328735511895 1.4878823930724576
C -0.8289182092341555 1.305474152146518 0.5315489083814989
C -1.4731891044225094 2.2301096106670553 -0.5120032710002337
C -0.8474960494260195 2.6038177277276398 -1.7239671625305093
C -1.4361472185113915 3.554335538983118 -2.562617282774736
C -2.6182145448740606 4.189665097198934 -2.182820812823827
C -3.2033775472552537 3.8928032312161513 -0.9520973404671139
C -2.6303064563067955 2.925208317229358 -0.11635257129636288
N -3.1720083397356205 2.687014843506277 1.1859740577832563
C -3.172376850536879 1.3423824024384243 1.7626140215347141
N -4.369906451106124 0.6514604621500596 1.2865800882734286
C -5.710149996735847 0.9562358085558824 1.6967755797831217
O -5.928401538295364 1.8712110173002288 2.5339415899404782
C -3.9875183167145134 -0.35872638427135883 0.3714937787209265
C -4.841099035700874 -1.1808274791909577 -0.3700489316325277
C -4.27907827300958 -2.2015204347142014 -1.1439562830576508
C -2.8934209634145605 -2.423018084789642 -1.1210964125081726
C -2.0444496596435644 -1.6089713506435859 -0.3398540511759122
C -2.6225417806504976 -0.5105910638204003 0.32919606321950623
C -1.9502781110390337 0.46709961165198943 1.2699089737398224
C -1.3557017603781107 -0.38381589717954057 2.4204268484498797
C 0.009468282507403716 -0.9792628597710792 2.0313267035442775
N 0.23452119780634867 -1.0078416001902994 0.5643208307457577
C 0.24400991931848753 0.33950877077406555 -0.06138908790442896
C -0.57778402565344 -1.9875596044623316 -0.20731431820191173
C -0.4571584049614497 -3.4121542507769442 0.3872947699029141
O 0.8952266209724644 -3.7960150195765228 0.5477078224819647
C 0.15308104316569832 -4.528971412323572 -0.3988150649646636
C 0.6898531237172963 -4.331411885480845 -1.8210518872645893
C -0.1313806772504244 -5.953613082214567 0.07600594686847752
H 8.778117603338226 2.8770781191667743 -1.1838051599524892
H 9.090748919815878 1.8759571873010221 0.29533998503674774
H 9.701297312008762 1.3303217051584308 -1.3144788724020597
H 7.617461188572216 0.19999785408442008 -1.6345813690869775
H 6.432064616315867 2.420698207973557 0.10718182075824956
H 5.206378752562446 -0.11315148357069306 -1.3304389675099015
H 4.03825358416923 2.119593673941959 0.39744445017849944
H 1.6840510988994244 3.0619947876266096 0.41498442226843907
H 2.1194709054947105 2.0800293851264677 1.8870966178787345
H -0.36633117556173705 3.2831858662495863 1.4900628084222387
H -0.055559655226814976 1.894679499301583 2.541767522372513
H 0.1110174106573504 2.204082250628246 -2.0199186673987257
H -0.9580949491817339 3.820207619000128 -3.4966753568343476
H -3.063391348634694 4.935655505375009 -2.8284145899727404
H -4.097452312954924 4.4203678837977325 -0.6446635001898768
H -3.82102777060518 3.394546181474121 1.5987621267366294
H -3.1958871688896906 1.4220172561707465 2.871492456717412
H -6.548192938280844 0.4014728158325676 1.3001210842867619
H -5.913281401076284 -1.04695562789932 -0.3534619971247567
H -4.918687973255646 -2.846863805181279 -1.7319961158785095
H -2.486690236598199 -3.2549483007130826 -1.6822767056373844
H -2.051264432952182 -1.2099834869710036 2.693689926738756
H -1.2403878926554432 0.2161879487766081 3.347827596917813
H 0.8159546914117628 -0.37631495434261786 2.501151372556744
H 0.1232414900623039 -1.9884140870309936 2.4765262832148633
H 0.10921863081206419 0.22752882031508687 -1.1578566031748052
H -0.18350607244670894 -1.9974486262502376 -1.2424780035575074
H -1.0541919634011439 -3.671391476081314 1.288217403071589
H 1.2175976047021635 -5.247685749850438 -2.1592201417649464
H -0.15545633363042013 -4.138612024311833 -2.513675204181474
H 1.4149026377225018 -3.4910746271734707 -1.8748288018979693
H -0.41466793998515733 -5.981683258705109 1.1502973658444962
H -0.9628432187491303 -6.38040154302603 -0.5226571478437139
H 0.7729161122662961 -6.582770311860116 -0.06255682863208788
