35
046143
C -6.321914599315455 -1.7117156000114109 0.9382458493210803
O -5.522661293426003 -0.8007381999133535 0.19367525573360928
C -4.629269128103433 0.08636352172136073 0.8008653630428306
O -4.485946216380688 0.09910193820261443 2.054132233988085
C -3.8012380974579494 0.994915445178646 -0.05098944304963399
C -2.515541739676595 0.2959370525637903 -0.483846494927045
S -1.5255264651915394 1.4200495699587623 -1.5291201314108496
C -0.11560155790791957 0.2750132350908138 -1.7735438794463325
C 0.9176056501481619 0.3704513358149331 -0.6293904550624956
C 1.5505147425061667 1.7772430497581162 -0.5668120828125336
O 2.6142223451740665 1.819163590289976 0.3846362436167027
C 3.5720914936484927 0.8039467890889812 0.4615983538469977
C 4.7742053338987205 1.029966077721529 1.1402908583017026
C 5.744386174275737 0.025333652582527264 1.1992810862268157
C 5.512370605852195 -1.209310275902936 0.5859125771150068
C 4.305091709376542 -1.4472158468511023 -0.07900006839361674
C 3.323609212575918 -0.44287700233279986 -0.13702313239738143
C 2.0096255152060105 -0.6719622208114135 -0.77535615137594
O 1.7750082610475446 -1.7662168660568873 -1.3584964703186517
H -6.987222759309841 -1.1549357611923878 1.6316895620539125
H -5.672274022181654 -2.4033890974041197 1.5153775008607164
H -6.946445047153498 -2.304539269514719 0.23895180191692325
H -4.388475764592877 1.2873557184094953 -0.9481250249945972
H -3.553678261561306 1.9169913517569188 0.5190492569212173
H -2.7668481288692583 -0.6178385302783197 -1.0648430100561717
H -1.9310823358387108 0.007472036946836413 0.41509630812058057
H -0.5003605372272459 -0.763105824765156 -1.865991886293835
H 0.3741177791223562 0.5302067579650237 -2.737755768851369
H 0.4066241775437612 0.17583523316228747 0.33710194779531927
H 1.955758491155742 2.0542529442645505 -1.5647368342366548
H 0.7906844723650296 2.5331490816140554 -0.27850686661912444
H 4.960508784830709 1.987123774158363 1.6103608308398323
H 6.677153989572726 0.20436440113393012 1.7182619434178907
H 6.265383964686603 -1.9853805660184365 0.6327733853449232
H 4.135123251207492 -2.4150114963304707 -0.5337626582179152
