32
046731
C -2.410947956115847 -1.268563698320534 1.5955061107897492
C -3.013984666796809 -0.17455185334800052 0.7084067976506198
C -3.3745466150950203 1.0913934580289273 1.5274812983103563
C -2.3888681430030223 2.197338513595098 1.116157245838037
C -1.6920437482424486 1.6145959515861616 -0.04687868483421943
O -0.8623412290739925 2.2461624721582103 -0.7547235987479606
N -2.041804777403287 0.2635690219632791 -0.28273737040410174
C -1.5711428242812313 -0.5408356745677919 -1.4093460656788406
C -0.1521119438469759 -0.8603783608800151 -1.2340648343172138
C 1.0156684560849338 -1.1157068361656441 -1.0809975206977795
C 2.439051124047485 -1.4177549858874552 -0.8892649363849893
N 3.1490924851640325 -0.23050918656816202 -0.37294829959435183
C 4.4472435773124035 -0.6289831056559803 0.19445535327281932
C 3.3637509915856483 0.7598866489722318 -1.443798477271963
H -3.1457009617000535 -1.5790663172878678 2.369081064695029
H -1.4899687912266621 -0.8985959980461665 2.0955180994072853
H -2.1536916828019286 -2.1587324610457204 0.9824154515310399
H -3.920797012772973 -0.5677665553351703 0.19799028967668036
H -3.329235479039026 0.9176438832646513 2.6258303855882508
H -4.40959253752098 1.4097933649400842 1.2731338509923351
H -2.9215120786168884 3.12993448626892 0.8293762696308273
H -1.6589626304124847 2.3985852511684844 1.9298936716723079
H -2.1462087815766977 -1.4884731918736251 -1.4723978389380727
H -1.7123812722769367 0.01962722214339467 -2.357123947687615
H 2.495473430537133 -2.255280219227365 -0.1588435516597861
H 2.8778728475088293 -1.7697583272797575 -1.8499956685384167
H 4.993315388940829 0.26284927637901284 0.5724171245453904
H 5.077135478009291 -1.146947393480192 -0.5634962221199143
H 4.2928704488746074 -1.306702610195165 1.0618968004602456
H 3.9973749165652674 0.34432861151448707 -2.2598938724663147
H 3.8553238576378166 1.6672248518430244 -1.0308855902622984
H 2.391670129534989 1.0856737613386471 -1.8721633344571362
