21
046897
C -3.071806858376353 -0.7950643884743158 1.1289036021151684
O -1.9690598430335104 0.02369508535663078 0.8409618413696722
P -1.2415046527199924 -0.597017364333003 -0.6199676589204807
C -1.5970322385210345 0.9240442533464407 -1.636484248830267
C 0.519723715380656 -0.25491202515235306 -0.1810585333363576
C 1.455335370028408 0.0124919220719273 -1.1908231453748872
C 2.7971395779603943 0.2362256618947438 -0.8666349491780982
C 3.2161824229816594 0.1750529314757384 0.46411830690080813
C 2.2952386142666796 -0.11843897899236001 1.4722265002251407
C 0.9527054311642217 -0.3422659766619439 1.151519553416081
H -3.5552965104812326 -0.4252870725084189 2.0560524646235137
H -2.7520132869419087 -1.8451222679603183 1.3114501933438218
H -3.827665142864084 -0.7504673176545592 0.31375202581527395
H -1.2020350252113394 1.825609342171425 -1.1258565122733664
H -2.6935504135875337 1.0307647192239964 -1.7636559936059921
H -1.125850740114304 0.8271611982083076 -2.63520196921312
H 1.1497482145107323 0.044128856631919 -2.2279543963876707
H 3.5128758717114192 0.45128359939318824 -1.6479776772560482
H 4.255386612063179 0.34605782013434494 0.712836139087863
H 2.623034963972687 -0.17925334356982617 2.5013692578361244
H 0.2584439178112584 -0.5886866546015638 1.9424251996428203
