44
047148
C 6.8462308637397 1.555838969021898 -0.8346818526394025
O 5.453329508978946 1.4985294680951966 -1.1245690025664854
C 4.518018260506472 0.7645538964520376 -0.3797385888683057
C 4.880853633040975 -0.002855505082958577 0.7413923614983864
C 3.917468152556299 -0.7199439618212429 1.4605904454337562
O 4.347954281327498 -1.4989316862617952 2.5371625780801526
C 2.5573190706598377 -0.6475177960381537 1.079419947195835
C 2.2066557446172563 0.08825268978015863 -0.07200246013095606
C 3.1800666136041813 0.7975371369205311 -0.7792268814791483
O 0.8798327223264356 0.13341945498546565 -0.5125026689496854
C -0.1352096457957954 -0.7061963163312651 0.0369453416742383
C -1.496607880506894 -0.1315877614563276 -0.2802291669590106
C -1.7510412645331543 1.2362766705422916 -0.10076498421294007
C -3.0164024622136414 1.7611652410667185 -0.3666279669367442
C -4.057089523501016 0.9233169523521372 -0.8089413832653995
O -5.342281583918844 1.4152412489423554 -1.0871682351423653
C -5.72876630176703 2.7797439970436586 -0.9592367128509214
C -3.8169357200670104 -0.44904958124617583 -0.9787654250719189
O -4.876157622473503 -1.2611049379932011 -1.414785348893219
C -4.781871461279005 -2.665785348201686 -1.6284263868742312
C -2.5364977143919627 -0.971357225992368 -0.7091312586957877
C 0.06879449595944293 -0.8452627786595087 1.554780776441439
O -0.8945784608771988 -1.7190402783468282 2.084675761659265
C 1.4807025720630067 -1.3880402745797522 1.8453751027013554
H 7.008339609149568 1.981736895761765 0.1780311827278502
H 7.344774157442246 2.2098480911407528 -1.5790421745264949
H 7.291662220274684 0.5406076487354627 -0.8987468609718718
H 5.913082972074775 -0.06058329285730989 1.0595457987944628
H 3.7349990971700806 -2.10708530102466 3.0638296607230613
H 2.894455187671049 1.374473015350291 -1.6500651351841233
H -0.03268791170067702 -1.7123147543178534 -0.4292075880468896
H -0.9678043118682738 1.8982379594759686 0.24775350883651595
H -3.176032290791183 2.8207930211980243 -0.22174075083460398
H -6.795664186727168 2.8824433600845825 -1.2447412447384694
H -5.608778800175889 3.113575783025485 0.09307437658838147
H -5.117378925437629 3.4147720816242977 -1.6346289910853486
H -4.511987580124692 -3.1788858705136445 -0.6812562895471679
H -4.024834185928886 -2.883120498009153 -2.4112927121801055
H -5.7656882060753425 -3.0470188404105336 -1.9705953728309615
H -2.3427008312866024 -2.0288808153602673 -0.8280690682019864
H -0.03296364087430333 0.16248630921023735 2.0238345247046197
H -0.9016103141198433 -1.5744812437207178 3.066909229166438
H 1.5311396502544066 -2.46533275381857 1.5751583612213875
H 1.6558920130186734 -1.2884730687653412 2.9377055542373998
