35
047190
C -3.0574062553238557 -1.7881189675189952 0.2275518991564817
N -2.357535591522293 -0.5199641853363368 -0.03290280999236447
C -1.691624064264723 -0.014489920377904418 1.1838141805022422
C -1.0410998063153911 1.3554544596220872 0.9250653550871434
C -0.11836210293690454 1.3263186067855355 -0.31778019640484784
C 0.3744063730881777 2.757836102462946 -0.6339342444706643
C -0.9432038027451024 0.832996532461937 -1.5261353891055547
C -1.474363583870348 -0.5692166523713733 -1.2287579704803235
C -0.28676079877200616 -1.5605217214697327 -1.1219068643581789
C 0.9239003644558753 -1.0144774881795726 -0.39409318151736994
C 1.9676543871699057 -1.9027914366384087 -0.09209689721539534
C 3.106613863014463 -1.4598811431353862 0.577874308146719
C 3.2177730447998867 -0.12537825628118357 0.9638937212420687
O 4.352165467274891 0.29584660975494337 1.6545509196867383
C 2.190658834371454 0.776620808578301 0.6610410603250789
C 1.0469397175963 0.3603869680607526 -0.05579137913997295
H -3.4544023521354634 -2.2215391342397908 -0.7154342629582251
H -2.3935428901702123 -2.5291609237571424 0.7222672940312231
H -3.924645060455942 -1.5997074358942154 0.8952334805376962
H -2.4447104592584705 0.11269956814796536 1.9923558225759483
H -0.9342819499407988 -0.7394726331942898 1.5542722685690775
H -0.46370874421525193 1.6595475426227562 1.825865152263047
H -1.8482017002990037 2.1072763445243847 0.7763657198162982
H -0.4638888950915143 3.391785475072732 -0.9959182271683782
H 1.1577028511261431 2.7343207806834755 -1.4220491418130792
H 0.7834453852217215 3.2581662968911513 0.2682627328160759
H -1.8031472295443358 1.5134226803185407 -1.7188861384935075
H -0.3152885946010966 0.8146163488517476 -2.445726262061605
H -2.090550071660027 -0.8733706500236108 -2.104816591076713
H -0.6070428337561626 -2.5145891790060926 -0.6575152576394014
H 0.03978564434894137 -1.8131590553502157 -2.1544202957873484
H 1.894357554141576 -2.9467589942219887 -0.37188962003552006
H 3.9004097820788317 -2.1590722638876936 0.8084385212645303
H 4.4656518516815895 1.2579940387719064 1.9516877287326018
H 2.2923016665091427 1.7963808772727705 1.0015145649654817
