103
047684
C 13.977122911290543 2.2059886949816665 -0.6586412421223633
C 12.734231107538543 2.4838726146070673 0.1875014227683127
C 11.446767650805253 1.9064817150169353 -0.42792993647407884
C 11.401235620076951 0.3701794781859314 -0.5080948669386531
C 11.29172087834199 -0.294656969273316 0.875808698577439
C 11.194832621018424 -1.8275507714949917 0.7934878225989868
C 9.908645531034727 -2.371128697204413 0.14176354211019185
C 8.62014636455142 -2.0504547526558787 0.9283393305279982
C 7.82818041084126 -0.8879903638360139 0.30407493572941635
C 6.579132033369641 -0.5045148958416202 1.118272228392219
C 5.519810078285602 -1.6149624823311275 1.253608200880604
C 4.986570413530447 -2.0988566966666595 -0.10584941248993375
C 3.8325694873432568 -3.10908475791051 0.022795217971457393
C 2.5279033844864065 -2.5558101876204877 0.6284903745896093
C 1.9576808293828296 -1.3388249236654293 -0.13521390642849768
O 2.60169662485323 -0.17579933598242226 0.3251051921974379
C 0.4344806909225146 -1.192465981963939 0.08727153311826716
C -0.36916546612643164 -2.2990470285287232 -0.5943575301569755
C -1.616488791879052 -1.599251427515684 -1.0315638774014786
C -1.15587343438448 -0.15319477433040285 -1.1849448472046689
C -2.240214032941007 0.8853650375030881 -0.833506276745015
C -2.529092015358133 0.9908788744613687 0.6582617421654988
C -3.98785536495357 1.3227382842076019 0.6934199986996868
C -4.5153418663837925 0.764205800779854 -0.6275196889099744
C -5.575719344075302 1.6679049355325084 -1.291794606851087
C -6.988706645688639 1.525734735120126 -0.6968457527707475
C -7.152990329892082 2.2364930933597513 0.657661703408846
C -8.627445574406762 2.422545118948843 1.0493161753520102
C -9.335826830476034 1.0854755687445135 1.33139222536806
C -10.758490376322468 1.2710404984385837 1.9056439448548532
O -11.260443847281461 0.030259082894367444 2.331535572848882
C -11.75074419172783 1.899997798121182 0.9055466763646154
C -11.917673547223956 1.088025567019529 -0.35013404805984677
C -12.616552843097686 -0.03554340288130787 -0.4649362449546585
C -12.521394266864876 -0.5786073089892552 -1.8700398962701885
C -13.89350059005596 -0.6494025545477424 -2.532094272172074
O -11.69482599602216 0.36941014276103257 -2.5401222346755774
C -11.331220418387995 1.356336743044114 -1.6440553509959628
O -10.606662970540501 2.342296808936982 -1.9378098612289094
O -3.4352625849736245 0.5927138294695936 -1.5217278805986871
O -0.0015154164538443728 0.05877865959724284 -0.4024648153097529
H 13.809193042267562 2.512911356462851 -1.7138359727162165
H 14.834175568649714 2.7866247433005236 -0.25570719156998883
H 14.24382136068075 1.129566383491382 -0.6226131177748528
H 12.888728183359692 2.100115638113302 1.2176833701737
H 12.611081155234984 3.5859163927503324 0.2655712304947628
H 10.576872358857814 2.263639217103944 0.16584492392187322
H 11.32488819109789 2.3187485913840242 -1.4535416575377575
H 12.288011007547633 -0.01925829056351949 -1.049955550297842
H 10.51097479979473 0.10679820818426773 -1.1145976656375467
H 12.204953756766296 -0.05940028300387082 1.4608781953036343
H 10.4307015618961 0.11505369253708417 1.4428284620574447
H 11.273877083225024 -2.2418374206639515 1.8220366020390486
H 12.06910673511815 -2.2122727064528065 0.22523538609581764
H 10.015562076546534 -3.477313367922471 0.10184304157704246
H 9.831470780228074 -2.045180359210913 -0.9163610690108539
H 7.98111804826169 -2.9586447911500504 0.9133113723873142
H 8.852047935063077 -1.8285482159220834 1.992608595443758
H 7.543422092148039 -1.1369394723004815 -0.7402243266365638
H 8.473553523742023 0.011363303973242238 0.24657885958430587
H 6.896794185495512 -0.19051846654755392 2.136942640119175
H 6.106083829872137 0.3819602805207956 0.6399776179580134
H 4.685151967154584 -1.1940311587533898 1.8515227132251746
H 5.929761920948578 -2.4713378898855196 1.8290513835534123
H 5.807009073760612 -2.6147889071154857 -0.6473656267068174
H 4.677943070969602 -1.2368380610712013 -0.732386254816741
H 3.6052136512868556 -3.5072514548334914 -0.9894669876371088
H 4.172979355820098 -3.9692871726546803 0.6384088353412769
H 1.7948687883230077 -3.3910470700504556 0.6097903596385912
H 2.674228228702799 -2.300660211943402 1.7002549526028425
H 2.146866020655508 -1.4727172060856586 -1.2285407697010675
H 2.6268294557607463 0.4643628609048841 -0.4335895110843989
H 0.22544007637921118 -1.2170262293999476 1.1810837594449346
H -0.5974664471684024 -3.1331830241012484 0.1049573624710647
H 0.16139792877325596 -2.697143110945103 -1.4877867303578503
H -1.9992175185405048 -2.010470042089052 -1.9916629958044605
H -2.400835073099255 -1.7125419009765797 -0.2525055773771027
H -0.8727499549408724 0.003176608529654398 -2.2500374609112956
H -1.8850394647480628 1.8809419237617355 -1.1829551234092668
H -1.9176035103160876 1.787467563414913 1.1372183247751473
H -2.350806271800482 0.03183511357099473 1.1896032671715568
H -4.1124657525840895 2.4266555602252513 0.7530484824765414
H -4.478134725569895 0.8421931937734335 1.5679253822960126
H -4.953201325841071 -0.24195546361794557 -0.4431895461585159
H -5.6464128248962595 1.3725562448464828 -2.3620632348759214
H -5.250335961400269 2.7314474904560693 -1.2844210497140893
H -7.701926090096761 1.9728699855520495 -1.423085701471578
H -7.244311640556645 0.44946292970316204 -0.5977367470252072
H -6.63996804691666 1.662389037512976 1.455152312554451
H -6.683129931986884 3.243072865346065 0.6047641050060055
H -8.663797916158826 3.0501851138753824 1.9656777947745432
H -9.149141821017489 2.978366501405549 0.24331654929508598
H -9.381362729657075 0.47098822389784845 0.40759329250587095
H -8.731207980880018 0.5197154266763488 2.074397910514333
H -10.699421857571105 1.955788449217447 2.78411744321067
H -10.800216712805137 -0.19307721918942883 3.1836021001008756
H -12.742410281589025 1.995328956521717 1.3996889517690292
H -11.431343497805395 2.9309053279531017 0.6453178256131901
H -13.165251829660725 -0.5020664167963953 0.3432145606705377
H -12.033540201957987 -1.5770782000312304 -1.8661965346575704
H -14.550051111393003 -1.3523779175670247 -1.9755649415381429
H -13.784588260596651 -1.013415174447006 -3.5764900529419585
H -14.36790796498913 0.3562242518331848 -2.548816558561588
