32
047823
C -2.3279490166657886 1.9116136558065306 -1.156196216434044
C -1.7014456805276506 1.2711846182733209 0.0866179095078168
C -2.472592040793466 1.6947270582547505 1.3406140535218503
O -1.7659710020089947 -0.13679567393550304 -0.03642963273420597
C -0.4514494329009673 -0.5405202391349663 -0.2600470558802581
C 0.3890714672987612 0.5448717310782272 0.37505835980055185
O -0.36009753600147504 1.7076673359611951 0.20013710380528377
C 1.8393790152929275 0.7197971231145962 -0.18469622034438307
N 2.8204515921122573 0.6586540374173752 0.9034313249454821
C 2.251417111196131 -0.24636600338113218 -1.323868038987353
S 2.338157474538468 -2.055073456635443 -0.9533280621419551
C 1.307514104086114 -2.237488836542729 0.5541327883294114
C -0.19519812186440674 -1.930092655508361 0.3521311218628543
N -0.8476221920707216 -2.9598833117037056 -0.4612438911568861
H -1.7627621606407606 1.6087764369168862 -2.063359619206702
H -2.299968143315642 3.0196809901299306 -1.0781584325735838
H -3.383165377860474 1.5834180174769752 -1.2721987865602975
H -2.0203307995020343 1.2241160553441488 2.2395214991567545
H -3.5338090944946523 1.3726755275804896 1.2713227797252258
H -2.4366122522402978 2.798365593146284 1.4645186135222383
H -0.31741927877176696 -0.5812585106268069 -1.3600907756219252
H 0.43829638899720447 0.3605882718060639 1.474246355808601
H 1.8998028853365208 1.7408179786377398 -0.6289592124777049
H 2.6012038615627135 1.4188939980393602 1.588115087495008
H 3.765463148424797 0.8891603324561916 0.518262712929967
H 1.6072285350490785 -0.08756630046399902 -2.2125417018024915
H 3.2659107742985567 0.046161958972413424 -1.6691773287228995
H 1.7286245869191432 -1.6270502737411499 1.3767927136774476
H 1.408965997051667 -3.289634687399195 0.8944917808473019
H -0.6646452593951332 -1.9459328846725372 1.362058081806089
H -0.7733377360851574 -3.878539816995228 0.03345784589232989
H -0.3471118170249508 -3.0549680696717267 -1.3746151579895232
