32
047959
C -4.534848894523888 0.6886609212423619 -1.680573402438193
C -3.052050492278809 0.5064857452430175 -1.3547189271172448
C -2.601431300412892 1.3338620158814256 -0.1288864555285377
C -3.2277860104879683 0.815278039321438 1.1758489381993371
C -1.0671924472225394 1.3451916488217606 -0.019454603871485215
O -0.5697824313477529 0.020346979826125985 0.16499186313749983
C 0.7871375085325681 -0.3072838729512522 0.2977989046601929
C 1.1314608628127483 -1.6520756289934913 0.4727211038694994
C 2.4698104020297453 -2.0317805110192633 0.6099331887319432
C 3.4865942284336837 -1.0652727621209308 0.5737793692203332
B 4.996013347390029 -1.4916231530071924 0.7273306286357879
O 5.3505570799145055 -2.896907420491511 0.9180805846027614
O 6.054561220419177 -0.4838951588277484 0.6978145655425279
C 3.145466330612872 0.2847713382237544 0.39842966530300933
C 1.8062380455386042 0.6630340698330934 0.26130936302100927
H -4.767853627457172 0.17487820856750058 -2.6370404060030426
H -4.779982546589316 1.7663476889142942 -1.7907592334779363
H -5.17025628091688 0.24236010047788617 -0.8880726413894638
H -2.469765257374619 0.8270728496564544 -2.2464040926242688
H -2.845339495526647 -0.5734831861165779 -1.188599001055429
H -2.9279200413472855 2.3881380813834605 -0.27195717750894377
H -4.3274708047315995 0.961794571636201 1.1659779254044593
H -2.8262755832126105 1.3781105630514534 2.045456511066384
H -3.0084107788210788 -0.26459611407506756 1.3178795486094577
H -0.7618474773474354 1.9819172044766864 0.8397941461167129
H -0.6338576326560906 1.7811749585405001 -0.9462570629605975
H 0.35638535202396543 -2.4075279090746995 0.5023311939275094
H 2.705421283965255 -3.080633651398411 0.7437775126115517
H 5.484977009136686 -3.248353761028533 0.001792085687934596
H 6.310966579929883 -0.41724380196807465 -0.2566397356506817
H 3.9113157815631556 1.0503480411295423 0.3667026544340537
H 1.5751660699517094 1.710903904845795 0.12761298684386124
