30
049046
C -0.4689381101859436 -2.440015961270301 -1.3809733073158084
C -0.012473613725495056 -1.4613333205561179 -0.8448390040539638
C 0.5414313748223989 -0.2646056530428634 -0.1890093636537708
C 1.8139267197768274 -0.614310641874528 0.6062838892845065
C 3.0975387723362138 -0.6364074777189451 -0.2443510302936454
C 3.1571619650001055 -1.8209190592729168 -1.2189070724540185
C 4.53198766995663 -1.9271847215279014 -1.8728168803426009
O -0.43180575126267984 0.27095059858589265 0.7082327750778401
C -1.5964780595824848 0.9224742653973989 0.28598423124332684
O -1.8299795320428585 1.0837225618239537 -0.944131730941122
C -2.54019919964147 1.4169235418295318 1.3011309393129107
C -3.674038994535837 2.047737488491916 0.9800684041266601
C -4.593180411950873 2.5274461948386353 2.024919323429593
C -5.722919386673426 3.1556159959358414 1.7125384669132269
H -0.8688676244428815 -3.299196841776959 -1.8516656376157514
H 0.7833606809338999 0.4984216028710933 -0.9613254698738688
H 1.9574962497551787 0.1658397518153651 1.3861539461321193
H 1.691376710693199 -1.580391549012131 1.1452920629740428
H 3.195101483862786 0.3185336158844462 -0.8058970428517638
H 3.9620054389119175 -0.7024714339276513 0.45259692957874703
H 2.9422504391342974 -2.768559731863962 -0.678762245938217
H 2.4023020506509023 -1.686735459929573 -2.021669682101045
H 4.767415497926524 -0.9948564900818884 -2.429174317457003
H 4.539627660829205 -2.778243538169331 -2.586045594009578
H 5.313662381972539 -2.1030701663466433 -1.1033545500115156
H -2.291633320270498 1.2548000064344844 2.343547928770241
H -3.9287370727632216 2.2127745624275237 -0.060943610308552734
H -4.352886862924056 2.370183063016877 3.070044828399592
H -5.99988136428089 3.3326934681897797 0.6804933374649692
H -6.384625792280007 3.5001853288289753 2.4965794765144484
