44
052019
C -6.003213659159776 0.9488751803112038 1.8563671467948435
C -4.92455609600608 0.4025395686073889 0.9688977851973725
C -4.667704222069347 0.9934042092581218 -0.277776973914457
C -3.6367310336843173 0.5087808116370618 -1.0880835239778943
C -2.846058166320432 -0.5643777325324615 -0.6577106560958065
S -1.5344112111815595 -1.1489883868728674 -1.6776562242854418
O -2.034808677266496 -1.2902754053535908 -3.0876347364099317
O -1.070395011881959 -2.49606869936903 -1.198209027934873
C -0.1697069121536963 0.004136255205700884 -1.6494268945981914
C 0.42872116185115194 0.11139245365219608 -0.2688053016366962
O -0.2746351226400749 0.5261188440469884 0.6418987291025419
C 1.8815160030281475 -0.2942186215073244 0.002276513904294923
C 1.9740318057489246 -1.8355648331374637 -0.13636051987056402
C 2.3485376554107353 0.17769238540103804 1.4248630432340943
C 3.7364777485206715 -0.3521398079828478 1.6879130636892012
C 4.567865058971689 0.31539857444639235 0.8917301612796701
C 3.7361883303185874 1.3019665945619228 0.11572812565901194
C 2.7019718893001796 1.63573599739244 1.1732615903209136
C 2.8704656299210813 0.5308305226259398 -0.9159438574997714
C 3.7123578344903607 -0.26771175065787534 -1.9276619239432227
C -3.0862148628111408 -1.1417395667820516 0.5970060230985326
C -4.116731482780771 -0.6575187130283183 1.4082802919681512
H -6.8321667868375595 1.3724208758301435 1.2501521831838083
H -6.423898146133958 0.14745006775002475 2.500409902180171
H -5.5811574399010375 1.7476794009406795 2.5012040425169255
H -5.263955334069503 1.8296319753149013 -0.621577540618656
H -3.449745626166713 0.9745048155346382 -2.0474824549877857
H -0.5327559083868216 1.003699973475428 -1.9681541135639644
H 0.5887719180927451 -0.33378347606692255 -2.3846917328391406
H 1.6728321183743895 -2.1608673334639765 -1.1537233926336754
H 2.9989544962085457 -2.217107828125065 0.04584373673042487
H 1.2967809662212408 -2.321711406833623 0.5984253154946757
H 1.6379564567963596 -0.0034156940985027974 2.2597433900083916
H 4.026891986122246 -1.0820774529654105 2.435834502982736
H 5.648614048024944 0.22392448278503843 0.8867282803641092
H 4.2984488130096405 2.170435284928981 -0.2885410377181624
H 3.1379045582340703 2.1418050242624864 2.067770923965112
H 1.855077452608932 2.2468155675616903 0.7853021895426096
H 2.3103305867936155 1.2938267204472123 -1.5042698461930721
H 4.371884463649745 0.4264418733628618 -2.490233231891125
H 3.0486012758884287 -0.7766499877304865 -2.6569471177659225
H 4.352404621939975 -1.0255763305655843 -1.4315579753196845
H -2.4715563927010153 -1.9580811975431043 0.9535959465973145
H -4.283184787374142 -1.1076332347239732 2.3792151958831287
