51
052289
C -3.436345931058777 -0.6717910007889664 -1.0044105090051951
O -2.4081513912045804 0.023728820986398443 -0.3300999469074309
C -1.2826496207684324 -0.8082144800541747 -0.07713613246388171
Si -1.5215957077030842 -1.5735920258680574 1.660497692782473
C -2.166440513623496 -0.3323342786906534 2.9017294786163346
C -0.08250639338837792 -2.526659191080027 2.3814592647009634
C 0.04597994681059422 0.033245891118675715 -0.3143523501684322
C 1.3478871363129044 -0.8139615400298872 -0.33659682979671846
C 2.5986187666721796 -0.1480427666693513 -0.377939342187039
C 3.7977070137222553 -0.8573629606042455 -0.47263970708276315
C 3.782561770685524 -2.2461177127798186 -0.5643791794736256
C 2.5668219933243686 -2.926348016357591 -0.5780129942387473
C 1.3622378845045668 -2.222795007738525 -0.48626686543123665
C 0.006231384157575672 0.6751659590097957 -1.7292800965094681
C 0.5606423780458276 1.9564484757031937 -1.980387659621179
C 0.5799933631340518 2.496101535770465 -3.2690438507427824
C 0.0910094864138593 1.7593274144634692 -4.344980605380323
C -0.3958408932321529 0.4704305850537554 -4.138344179333593
C -0.4163070996663662 -0.07641454970643122 -2.852610755307548
C 0.08721145338875862 1.1281559404161872 0.7939974339602961
C -0.8166627016128243 2.218059226604673 0.7522164595185422
C -0.8262929073251176 3.189466482750207 1.7559063828548072
C 0.05201586755397996 3.092572166365351 2.833485887319912
C 0.9336042909094882 2.016749504545458 2.915902802463917
C 0.9432466256945647 1.0361506582995608 1.9197351626264851
H -3.120387604697503 -0.944016487347527 -2.03421848855859
H -3.7522571637239865 -1.5791049146521543 -0.44476381878564786
H -4.318163705955851 -0.004091157313806741 -1.088030737800427
H -1.2850459471254154 -1.6847350024718986 -0.75387881270741
H -2.600736428447847 -2.5602383482519753 1.5130074659418262
H -2.944357538655332 0.3004113239787942 2.4271339010523993
H -2.611332266148978 -0.8769808755299208 3.7600615680797795
H -1.3432747417186168 0.30624062461628726 3.274320151909332
H -0.3422408059739833 -2.842462512328332 3.412610347757521
H 0.8268028070098392 -1.8989126732753854 2.417153897222066
H 0.11141588325926496 -3.4328005156728887 1.7728850375100993
H 2.6498015233514365 0.9313028244409588 -0.3295642798262391
H 4.7404450175076915 -0.32641839000006456 -0.48512536327738537
H 4.712265225636808 -2.7947742950954697 -0.6411033667151156
H 2.555440543566744 -4.0054139906139925 -0.6720477583334631
H 0.46360769320222633 -2.810768028431678 -0.5328028071862513
H 0.996184196204602 2.547403841233851 -1.1872109551575696
H 0.9904367536686348 3.4834364580908828 -3.434951201916269
H 0.11157544315986465 2.1772067061928135 -5.343150382891784
H -0.7415704865826246 -0.11590788056966625 -4.980185502064871
H -0.7414419692051825 -1.0999675355232958 -2.7571680443653066
H -1.5091292766251672 2.332462636979437 -0.07149687523745094
H -1.5184470104894658 4.019473860512707 1.6975903818243698
H 0.041747421933822894 3.845926477944856 3.6105839623115843
H 1.6023042378877217 1.9322937793854544 3.7635947760997452
H 1.6233819972140084 0.20846494298255766 2.0483073439212918
