50
052980
O -6.8429289230255455 2.2097351168621544 0.7623567870445978
N -5.681787629307831 1.9805370441610326 0.36425026418522444
O -4.952999466737321 3.0225566587740227 -0.16097391369432143
C -5.117540129684475 0.6574038047337282 0.4842892219073519
C -5.826095241859228 -0.35210158893665927 1.162140217761231
C -5.2892972898761865 -1.632923566212852 1.2861091497108958
C -4.044247028897763 -1.9073915548926081 0.7273305266436854
N -3.3662273904527424 -0.9322288307005737 0.07078531072634588
C -3.853758293465274 0.33455889582714443 -0.06115880179094298
O -3.122883372398976 1.295813389622141 -0.7735909502437329
C -1.7514458579237748 1.2216663074250413 -1.0575090815591857
C -1.2810150600086723 1.8069846337265292 -2.2328809816322335
C 0.07759653226993769 1.7769672722839591 -2.5428800985106084
C 0.9946666388125488 1.1632058999131758 -1.677384691300135
C 0.5328616063432091 0.5295762217792251 -0.49085342860648473
C -0.8404278973275178 0.6158036282082129 -0.17705901466289498
C 1.5018171506871143 -0.15837545082943735 0.5011218475518686
C 0.8764176572404225 -1.523439207391565 0.9734598633756245
C 1.9063411164250414 -2.6535901138116933 1.117341418220531
C 2.6383087649032753 -2.92607387535353 -0.2154875548027447
C 2.8813257388480062 -1.6518557632252577 -1.055026428985713
C 2.890932672230819 -0.4030275517155359 -0.1521471256269914
C 3.3361588263453164 0.9160443795845962 -0.8214082638250527
C 2.4589049126607714 1.188358408763752 -2.0456192876986283
N 3.195778763525365 2.0811143799492164 0.09221122118441961
C 2.95599640298286 1.7506976979911766 1.5092196754312717
C 1.7418058644616472 0.8038667629181797 1.706305674316255
H -6.795046342083003 -0.1498690988271598 1.6001947352353123
H -5.835622015643367 -2.406798902531381 1.8097434975847515
H -3.616163653546632 -2.897264253133275 0.8117635763985243
H -1.973715863485969 2.2900023551690203 -2.9104341566238374
H 0.4190999238900173 2.2450981847409457 -3.4581104830441367
H -1.1954574311245347 0.2283235440247431 0.7681181128987815
H 0.1226345912763579 -1.8819595152669204 0.23664709947243515
H 0.33462914996322507 -1.398472230474096 1.9364205125872058
H 2.6422816549306387 -2.378709626809091 1.904245494472626
H 1.395310708313101 -3.5819203368440102 1.4527764197747377
H 2.0452099522597913 -3.6467918211382466 -0.8198480188315002
H 3.613138205074239 -3.4099685790416823 0.011333318544647168
H 3.8499599615593425 -1.7403938950205042 -1.5931859313188195
H 2.073570417959832 -1.570220859666826 -1.8139863412661008
H 3.6485408162154522 -0.6238013309382852 0.6356729983343807
H 4.395620302560748 0.8154000402928856 -1.150912593509908
H 2.656114144321541 0.44189849651624524 -2.843852662546779
H 2.725500842330742 2.1850376915031426 -2.4621259053310554
H 4.063426680412361 2.6642570852469185 0.03449524292870129
H 2.7745498084739726 2.690300862263384 2.07415158242882
H 3.870902027398021 1.2872858234816387 1.9420913003037035
H 1.9344975169755816 0.21404263504900164 2.6294836897887017
H 0.8327595351975301 1.4106407319499732 1.912376956599175
