64
054018
C 3.5436620166638257 4.998992490066943 2.0935521518452593
O 2.301981042768894 4.347860731254744 2.3590536513063234
C 2.037659984624216 3.005395821568877 2.0489693759349956
C 3.0127826307500567 2.157666183717272 1.49453770162073
C 2.7032977450355373 0.8323489207529859 1.1929799174764886
C 1.4145664102401605 0.32305291917011963 1.4396489305735218
C 1.0704376526775148 -1.0919600450442148 1.0192836899316609
S 0.34673542767651117 -2.012131565345378 2.4467329104146507
C -0.34838354675373084 -3.3783791115823263 1.5071070781873606
C 0.3207529685983202 -4.604398864341498 1.4284182336306985
C -0.1933364484207083 -5.624932740866372 0.6252630686229569
C -1.3942170919600698 -5.43486017819379 -0.07106649503435081
C -2.063459070297563 -4.21379730025191 0.014631228963096272
C -1.5379890708263746 -3.180033684634859 0.7883011765192284
N -2.081466595745779 -1.8662408818003304 0.6574906963918778
C -3.5364219897620037 -1.6833431181995688 0.8138146246727325
C -3.8610448354353637 -0.5449158598484973 1.80870195543821
N -4.948127941809235 0.35191130886210326 1.373171070254783
C -4.55772022221338 1.2233733072936361 0.2545204513370317
C -6.204019957185371 -0.3566496460358451 1.0883887077572105
C -1.2712726793264644 -0.8601357341794883 0.010761220722837212
O -1.7983435739169482 0.2134361561272647 -0.38607786580928527
C 0.20111939200300802 -1.0987878353845537 -0.2744302402840677
O 0.6709650835400905 -0.13143240908536258 -1.219002826601738
C 1.856060764109959 -0.2838071746398633 -1.946233561261496
O 2.6254716190882883 -1.2557681483425944 -1.7202258316594774
C 2.1704900940874174 0.716539296852893 -3.0296184744689647
C 3.5221083627062875 0.5194402996928317 -3.6902453188351965
C 3.8006539531131045 1.8718260483999247 -4.299240702943519
C 3.0451448544005815 2.858124719632032 -3.4101633243373035
N 2.1483233805876236 2.0946488909235357 -2.531578720708971
C 0.44218254670103013 1.1724547522399076 1.9931773005491844
C 0.755224032108163 2.4989882663818412 2.301612485365166
H 3.7591035507497756 4.988074983855167 1.0010249861362526
H 3.477899897740124 6.053183407568309 2.4291004249626407
H 4.364409234498798 4.499729655001983 2.649975147088436
H 4.009323847221082 2.5186648385655106 1.2921622859773452
H 3.4651630842632843 0.20332627413424606 0.7529745515984045
H 2.0126908258945506 -1.6332099967762506 0.7854586965216102
H 1.2563760599240408 -4.748020619720001 1.952805287417034
H 0.3385089160462008 -6.56428748092555 0.5405251227563975
H -1.7940635397115605 -6.225030167476744 -0.6949734400016224
H -2.9554132527567947 -4.025447290978063 -0.5731677843580091
H -3.9939667969815 -2.6262285079259864 1.2105301643817608
H -3.968615542042901 -1.4997187616842749 -0.1863294344930479
H -2.960805460156861 0.07294895158202704 2.0158011226836416
H -4.142823903323838 -0.9923961846388908 2.7857397614082053
H -5.3367568704038355 2.004151849620221 0.09337736316776556
H -4.44132072519022 0.6477246188710976 -0.695114803714902
H -3.606518009769896 1.7498003790746264 0.5008016743077471
H -6.459053104054665 -1.0269569000614758 1.938233775899172
H -7.030107811460487 0.3761722760055409 0.9764882306305985
H -6.1348668839736495 -0.9528240126039487 0.1565922685812423
H 0.2866794328338144 -2.0907237249309394 -0.7645252916206198
H 1.3821453131321233 0.6166126180237161 -3.8071536688517935
H 4.304706424077583 0.29220859602203386 -2.9337092390810855
H 3.4977186130398703 -0.282986818474868 -4.457094156541838
H 3.3886413563019233 1.9040258182325158 -5.334183276561453
H 4.8866038146848565 2.0906015502846116 -4.328812058216543
H 2.4526305136737445 3.5611280704064168 -4.032280080119506
H 3.7624257588177845 3.4564081486276774 -2.8053726317440013
H 2.5522065063046213 2.1182015666886995 -1.563671322612642
H -0.559212421716039 0.8105957238067204 2.186787467010127
H -0.007525765489542756 3.139785324665411 2.7257745918170535
