28
054409
C -4.330582495774412 1.0023837419428592 1.0715412091417194
O -3.232025711366245 0.635628568731758 0.2677143023844832
C -2.0541761967650207 0.6476125120145618 1.0485897953625862
C -0.8583943146646265 0.22057340031877326 0.1823566156873227
C 0.45455023745940654 0.29874368145102725 0.9885776637033586
C 1.6600149294054867 0.04713174498401948 0.11721547379698671
C 2.177381330533204 1.0763081649819366 -0.6873385743923918
C 3.275943782914486 0.8361566258922354 -1.5184898626031058
C 3.8607699311426495 -0.4325478982088049 -1.5574791159762522
C 3.3465065779171184 -1.4639985620408982 -0.7670349332387341
C 2.2483482395527705 -1.2280978418092097 0.06586184728089359
C -1.0716085398299777 -1.1657151486830695 -0.3692528148711533
O -1.2530699574899165 -2.1420076248422912 0.4079732613339005
O -1.04967007162823 -1.371403213726227 -1.745106149503997
H -4.487153963321448 0.2722075534984614 1.8964843920934473
H -4.207250272805116 2.030310021291915 1.4796720775181142
H -5.244778167196553 0.9988651914237272 0.44324408154698147
H -1.8619977748073298 1.676357703441235 1.4323694583898026
H -2.144295916669967 -0.048566187775448494 1.9153315688108288
H -0.7899102113113129 0.9345731315495531 -0.6690915260384008
H 0.5513214342120437 1.309280687349142 1.4434119949595836
H 0.4290335053904107 -0.4277591389049044 1.831161363468739
H 1.7282026257657337 2.0616831916159524 -0.6717133738673945
H 3.672047665947466 1.6329785886513866 -2.134631815201659
H 4.710158999877189 -0.6171797361181494 -2.2023741914622774
H 3.7971012400275033 -2.4474656597173654 -0.8018206217552124
H 1.8550992647738755 -2.038667804912995 0.6667753221044243
H -1.1815661712891863 -2.2973856923991773 -2.1339474486725956
