39
054787
C 4.885865527876061 -0.27186329195450976 1.2278227103313166
C 4.069795230361254 0.1022805383893057 -0.03300453586365287
C 4.5326379153217236 1.5016428616612372 -0.49325923414650313
C 4.401000953357114 -0.9336931493623896 -1.1293693508264038
C 2.547172092627717 0.12011849875313825 0.21506039147922254
C 1.6709230429852098 0.438786336851596 -0.8471408656623807
C 0.28703387549141496 0.4640523006507041 -0.6596085669949082
C -0.26230928159021577 0.160272262620594 0.5896521182010283
C -1.7464766154830922 0.22165685973472596 0.7923880906779271
O -2.240132538845605 -0.9524261580544742 1.3964754016756489
C -2.539901926283666 -0.7757453528226328 0.030486459105886647
C -3.983191433811721 -0.4303411086502274 -0.1811497555918509
C -4.994136331934279 -1.2389936863900743 0.36182929950243886
C -6.338992770941252 -0.929937815060755 0.13389861826887878
C -6.680558226043601 0.178861118471254 -0.6460499080792493
C -5.677648304859962 0.9775100218795032 -1.203432999224805
C -4.331858292565879 0.6714180136032986 -0.9777329720411093
C 0.5877167123867945 -0.13849791402428674 1.659527607054536
C 1.9733373056987906 -0.16499205464596026 1.4774182180972313
H 5.975139733841807 -0.27811700036598563 1.0049562780111763
H 4.717656571853977 0.46568332140170826 2.042186434248561
H 4.613700114813625 -1.287336458535274 1.5887592735216274
H 5.634640204396331 1.5246576470357265 -0.6381303210289949
H 4.264071753960936 2.266773419443165 0.2670317021502709
H 4.0649169241473295 1.7897249457239996 -1.457838212985124
H 4.034905695147686 -1.9404409008775294 -0.8326695200633859
H 3.9344013311283508 -0.6651795221036902 -2.100063340678822
H 5.4985812688565225 -0.9958102265072571 -1.2948402134536448
H 2.0533905334876406 0.6736222412039425 -1.8309716441541977
H -0.3582857552954717 0.7185853058452056 -1.491677567632795
H -2.2329530672095794 1.1345536717582414 1.1972410986924475
H -2.030372082238675 -1.5281785483064332 -0.6084203912123293
H -4.740832981475106 -2.105491910592182 0.9601096951290977
H -7.116195784074097 -1.5518976052269626 0.5588378520245587
H -7.721712249837237 0.4161770574927482 -0.8224738244031826
H -5.9430096145384015 1.8316833590405373 -1.8128781447417415
H -3.562164354637311 1.2919429267224103 -1.4202587192552274
H 0.17681777400941248 -0.35280591827238966 2.6386104652753466
H 2.577027049915466 -0.4082540865300274 2.3386783745931075
