33
055683
C 6.247845693411383 -0.15955884373925305 -0.672363482761668
C 4.803110899366816 0.16821256629200929 -0.4372465252376896
C 4.444118163778651 1.1508781349080937 0.4966826172019764
C 3.096915265978326 1.4315019398069546 0.7437531134298131
C 2.0873800590238054 0.7238084469031083 0.06937641617153907
C 0.6633305436389382 1.019326132174962 0.33018637932935724
N 0.22430384274860274 1.9515602266107739 1.2028701859574953
N -1.0956209197739757 1.8890247923505938 1.1373687799929322
N -1.4353997141482862 0.9651147816666896 0.25539922933901243
C -2.8080156495007804 0.5736908416899243 -0.03884547491710483
C -3.240955795639854 -0.5547310491753182 0.9071742773255411
C -4.683818432574005 -1.0547360621352944 0.6819852047616898
C -4.881860002614193 -1.732637806621944 -0.6827907058223274
O -5.620961065321646 -0.026527076447387235 0.8897708323729909
N -0.36738863276303785 0.3872049080687903 -0.26642508772372187
C 2.4505179954727065 -0.27277624637052755 -0.852492159980797
C 3.7980881786738085 -0.5523887324928034 -1.0985904199736025
H 6.403105844118655 -0.5239347637343084 -1.7102400575709749
H 6.568009152977396 -0.9482002630386719 0.04008202216609369
H 6.882611245658031 0.7403274929417593 -0.5262593660018424
H 5.207167364570638 1.700951375010192 1.0336325075864214
H 2.8460320711440175 2.199433448507109 1.4648160531637973
H -2.8673017278051085 0.2381173701263714 -1.0953868162197355
H -3.469679776400487 1.4570010574472574 0.08614129193212679
H -2.539856625750374 -1.4109963596926556 0.7954006017066445
H -3.154591887045442 -0.19248165273666976 1.955096449735556
H -4.875038321427822 -1.8320221294621175 1.4536250381207074
H -4.132966000595197 -2.5409235551118985 -0.8227955358424754
H -4.787626186681718 -1.003251021982789 -1.513808016881138
H -5.896102015293278 -2.18262762132026 -0.7299444416329058
H -5.616239739393802 0.5613732113047831 0.09045803323284803
H 1.6936168026184686 -0.8389849399456389 -1.3808481866541733
H 4.057269369548766 -1.3307486018018335 -1.8057827563063853
