32
056000
C -3.6139299958949964 2.265774776438188 1.9873206368260719
O -3.3947766257644445 1.247585361295613 1.0162953807208648
C -2.1297607766860063 0.7814332969696574 0.6243591679863664
C -0.9412651325725789 1.2966512220398791 1.1733723361754187
C 0.29831460459170156 0.8080555119143039 0.7594379593287179
C 0.37886824374500494 -0.20705474783471328 -0.20798480180966172
C 1.7281502018093542 -0.7379048168971013 -0.669965301553941
C 2.579587220899463 -1.2740404910845107 0.4900070291734084
C 3.8540783645099017 -0.4609159899394479 0.45437893625719233
C 3.890827940525167 0.1207357847355895 -0.9435031903017363
N 2.508067595178177 0.28693518471408025 -1.3820365902161054
C -0.8074124964837954 -0.7179945685164785 -0.7596972687056619
C -2.06283953794874 -0.22940769092164304 -0.34658221936037875
O -3.265758064496904 -0.7222391854496041 -0.877435054429197
C -3.354461076984711 -1.743691605945608 -1.8655820782148826
H -3.2001993384074745 1.9525775424629292 2.9691255383090986
H -4.705012207921471 2.4316451029664234 2.098491839816533
H -3.1418192999480103 3.2154618004015316 1.658068228341378
H -0.9642404110393104 2.077055300574454 1.9215244415586086
H 1.1991073166148316 1.2224376310049616 1.1949830969530588
H 1.565301516368496 -1.578910935042588 -1.3809524031555525
H 2.8179455361086405 -2.347476014544487 0.31902164674743305
H 2.08366968840388 -1.184168057541804 1.481531422480157
H 4.749510801045091 -1.0868685104352016 0.6597743676874064
H 3.7956591917672813 0.3632649873043847 1.1991659153640093
H 4.4054228809447 -0.5855260151207557 -1.6313798979221736
H 4.436809827500189 1.0903949365631298 -0.957606122294442
H 2.2041980907756082 1.2480446471922677 -1.097089200400852
H -0.7476765367211006 -1.4951725457166163 -1.5094197020025433
H -2.90176886343982 -2.683631787116972 -1.4850527974880399
H -4.422803528558334 -1.9325565794617168 -2.0964364240568325
H -2.841795127919791 -1.4204935450081424 -2.7961348918137245
