46
056573
C 0.6782144944102855 -0.4578237687333638 5.974255363067058
C 0.9226167047810655 -0.4215131318145503 4.5006424909879215
O 1.9087862061314471 -1.0438112565392859 4.0213735582931145
N 0.04803973379183525 0.3400016779801478 3.6529453958843896
C 0.1836356303439052 0.4358596099901511 2.2284263293863558
N 1.108192958064454 -0.17452430942080263 1.578267057817038
N 1.09448889305714 0.02719700530653999 0.19495657210145081
C 2.2327614687190525 -0.41795953821739995 -0.574651422048258
C 3.3270525521681575 -1.2021055359304704 0.08069481737833716
O 2.3202659373708947 -0.1732442686653445 -1.8054918244248335
C 0.04022454990834594 0.957573586880855 -0.2665773117030448
C 0.7017749314758535 2.287681070751352 -0.7393025094173538
C -0.2503186292767745 3.11924552707915 -1.598674645943215
C -0.6045525048411211 2.3902997146604954 -2.9053932467685835
C -0.584784446825419 0.8508432846058891 -2.7871225718048303
C -0.958330612358719 0.35943566413759076 -1.3583726166969707
C -1.3735538835458279 -1.1796005625123083 -1.2909862125552194
C -2.6016328248231972 -1.4337273372084787 -2.210894293271516
C -0.2526068309479211 -2.14220353612177 -1.744163766741903
C -1.8149020183759115 -1.5807801797838086 0.13504053582559314
S -0.9450327750475188 1.390526028022941 1.2408042752926147
H 1.3447213281697763 -1.1996727639529288 6.463544661841141
H 0.8743928861913897 0.5454260457372707 6.406355973092129
H -0.37697619274783345 -0.7407205815583482 6.1710580447399845
H -0.7426438201684734 0.8574425615161784 4.098466034169181
H 4.096451499104514 -1.4997240762748203 -0.6632550035820529
H 3.8094701045876382 -0.5840031932610683 0.8663224175355843
H 2.9037462178668565 -2.1187727865367436 0.5419137930362741
H 1.6158697736015213 2.103077350810729 -1.3376257852346087
H 1.030362904323007 2.890353278389918 0.13571424860823164
H 0.22249661987289232 4.096394072147025 -1.8379724119407885
H -1.1781265144353021 3.3317178883586966 -1.023769804139478
H -1.6149486944153597 2.722905180820662 -3.230090885974258
H 0.11082094340283927 2.6939236785781246 -3.7008891540317697
H -1.2858007239381484 0.4656346124827667 -3.5509286419080213
H 0.41566525971212537 0.4833393367307274 -3.075604181096492
H -1.9202615521703061 0.8885146101743563 -1.1678584074853056
H -2.3259699716514253 -1.4180271332755434 -3.2849555310489067
H -3.0400162272848825 -2.4390376773349547 -2.0273520054621397
H -3.400521673338645 -0.682639607372366 -2.0314974045710716
H -0.663688618995368 -3.159516182212135 -1.9241553336644184
H 0.22002417106190142 -1.8051667047453295 -2.68846831928504
H 0.5193968321484446 -2.2701537549355986 -0.9640099597075054
H -2.60743540717391 -0.8985301665760518 0.509632293974474
H -2.2220424771838783 -2.6152413615372896 0.14919648546161945
H -0.9653262007193946 -1.578892370640807 0.840452902015102
