105
060317
C -3.0928276486353385 -1.9092618928784844 3.018100451330859
C -3.6684400955220013 -2.5371165047151507 1.741371674678464
C -4.604722381019462 -3.698288686014196 2.0887509314717265
Si -4.491590574753152 -1.2089613088312832 0.6424291558560005
O -3.240319806414738 -0.1417664078046835 0.06102593530909167
C -2.204018553569328 -0.7734499236262823 -0.6677387966349829
C -0.8773491485437015 -0.5916978627532437 0.07445297474823245
C -0.5067396666613291 0.8984725942659298 0.11007289577121197
C 0.7722456324303126 1.142326576130453 0.9362418729994556
C 2.074201479590885 0.9137832901203228 0.16510658579338536
O 3.1456687311016367 1.0163043290679914 1.077157361523342
Si 4.435163364399534 -0.14216109990354428 0.8500167783270128
C 5.463378775619381 0.21805077417929195 -0.6769982572707084
C 5.011166275846943 1.0737914487427367 -1.691210010044798
C 5.803088631555353 1.3183015408143692 -2.8177880040279946
C 7.0520950487666 0.7071539107520435 -2.9416207554233487
C 7.50979985975018 -0.15476157854464145 -1.9422015197002884
C 6.718173069837179 -0.40235190488058037 -0.8188397728369794
C 5.528610031158821 0.18509436104620877 2.3335336497387242
C 6.694259714747194 0.9631122726345334 2.2056320613769778
C 7.465646758004652 1.2719496655375455 3.33100566576475
C 7.074133685785197 0.8231692807291663 4.594332987790682
C 5.90107896159864 0.07998164369962102 4.734732140536122
C 5.119054648614637 -0.21826725735182212 3.6156202214475046
C 3.884806791875516 -2.000330180255553 0.8049207767116137
C 3.7030065220055146 -2.458487809782461 -0.6587946969100141
C 2.5626845453108626 -2.216759142578317 1.5689140320726958
C 4.970979258888637 -2.891068431797775 1.4459799037601782
O -0.35362592395067544 1.4151054103734302 -1.2059074648800971
C -1.5725257115918418 1.3686692422670599 -1.9525203959743882
C -1.301268306529262 1.8878119831075952 -3.3889224713197024
C -1.1452115384934087 3.3811739234754334 -3.4313991954486767
C -0.6092933305261039 3.999727791673051 -4.572422674088557
C -0.5160812831905058 5.392496225437566 -4.637426362877216
C -0.9664390177286155 6.175324891816197 -3.570661746266211
C -1.5158504840653209 5.56704165435099 -2.4391316400519685
C -1.624515590362244 4.169088689899085 -2.3730387349728805
C -2.1538139528370963 3.50927943421682 -1.1295812356082866
O -2.5869118968401246 2.1764637928071315 -1.3582499223634514
C -2.1019889462919363 -0.10437574317803704 -2.0531223401915226
O -1.3155700085497237 -0.894924504707873 -2.9168767898392467
C -5.476262233877342 -1.8984863097182334 -0.8545109992951557
C -4.686087174013094 -2.9437825915004 -1.6549643624092758
C -6.849018185206187 -2.4602457023096944 -0.45900447510361353
C -5.553682851126095 -0.013979134135423654 1.6841591054342036
C -6.597394401195742 -0.685531834936172 2.5860091230347653
C -6.208633077718015 1.0455366950100993 0.7858121144980525
H -2.412790647474477 -2.6282392485496637 3.5194787170839095
H -3.8949037853982955 -1.637960949937905 3.7299682649442314
H -2.5105207378261287 -0.9956042531469829 2.786807780479047
H -2.8160218897595994 -2.9625024083540414 1.1694663697377083
H -4.094312504928778 -4.403089902596823 2.778321103365786
H -4.869279656933919 -4.2678046851090405 1.1768782933330946
H -5.53393530771079 -3.3408897335414562 2.576318610719492
H -2.3527596941368167 -1.8640592970010768 -0.8034470041964745
H -0.9710166628603254 -0.9890561651308764 1.105160667378338
H -0.07823097491473646 -1.1791725881967026 -0.43045228149592923
H -1.3160647823391212 1.4372524026030093 0.6518120519037534
H 0.7627494388546723 0.4987732625953395 1.8448726814212495
H 0.7684167250787913 2.194937390852186 1.295473554299572
H 2.158408833626289 1.731799228874822 -0.5773976149159977
H 2.03335130222395 -0.04053054300715846 -0.3859790869208503
H 4.062650640236476 1.5765086551571172 -1.6177702824493814
H 5.450074412507083 1.9878046912931302 -3.5933046672947864
H 7.664907778342577 0.8995868574860987 -3.8109807191575453
H 8.482039789387958 -0.6214402657712493 -2.031988062036919
H 7.101265254817778 -1.055168860737021 -0.047748935935187
H 6.998523931056483 1.3629277439110197 1.249642065508735
H 8.363605724645264 1.867692954143801 3.225767766201098
H 7.671196364632327 1.0639048952209513 5.464417134630026
H 5.581698314066602 -0.2474301574758973 5.715715716706951
H 4.1926478396739295 -0.7526707376680399 3.757203708550555
H 3.37131080321822 -3.5186139191775956 -0.7019182418472967
H 4.6577885407098885 -2.3869544995267242 -1.219127342921884
H 2.946721199411033 -1.8524579735640108 -1.1906747310960533
H 2.294594265605009 -3.2947393628282846 1.5811443191420227
H 2.6364867742085982 -1.873863437302435 2.616197408556652
H 1.7220801523219103 -1.6823091885791548 1.0935919790200421
H 5.959167259968828 -2.7237279216604535 0.9709850790595939
H 4.71418595603084 -3.96756452640773 1.3197723140657358
H 5.0632551523102505 -2.698091675256574 2.535266264218415
H -0.3841564141737638 1.4104141540010386 -3.797792455319731
H -2.1534067709330684 1.6240775356334454 -4.052599908969416
H -0.2687084888630288 3.4049466478329 -5.4120014556590545
H -0.09500378873440521 5.865562292093019 -5.515842795204342
H -0.8909689659477494 7.25358587392582 -3.6225531258640857
H -1.8553895981422295 6.181612903761863 -1.6150182325611164
H -3.0269644705687706 4.086149255127608 -0.7590799984765337
H -1.3828087229318446 3.549017173297582 -0.33078638001048133
H -3.1282050116120703 -0.07053600847316126 -2.4855289741233424
H -0.3628503629141802 -0.7884947663945172 -2.6583276889118963
H -5.6629389708895 -1.0347003734112679 -1.5297115914747144
H -3.9131324596895536 -2.451780246554015 -2.2769842574138175
H -5.344500961799858 -3.487583436228357 -2.3665517024565728
H -4.206532965740958 -3.692160743645246 -0.9909112935899508
H -6.769579100019045 -3.201715518763957 0.36184660569632005
H -7.52666018338709 -1.6384537491030469 -0.1549121380017736
H -7.343104953678901 -2.9503815094645227 -1.3275640962076256
H -4.841543143449792 0.5213020554398021 2.350429198217521
H -6.10522785592678 -1.2774534817158145 3.382297220608331
H -7.281726024639128 -1.346502086609288 2.0192839884773175
H -7.211683194578427 0.08975309616803397 3.0985691159789397
H -6.684845216156281 1.833640287542006 1.40893030400671
H -6.987892969696298 0.5936820969663961 0.137854383919061
H -5.448519211854415 1.535617157012279 0.14103662084685434
