56
060411
O -1.224642495167053 2.0051493987589826 0.17328057132089691
C -1.2888319264508732 0.8471788227237013 0.6319248421893018
N -2.275030704354977 0.44506152794591974 1.5740953387921626
C -3.5022464288713224 1.1730376469061143 1.8900212530404343
C -4.576029750074835 0.8595978601897561 0.8840298178192434
C -4.537216322381771 1.444547012217593 -0.3943839744132562
C -5.5055081244871715 1.1172503906692262 -1.3455741443752092
C -6.521883441761006 0.211006575966922 -1.0298710928329966
C -6.571600506020732 -0.3692820096479797 0.23873443454623522
C -5.599857582250545 -0.053064907517551566 1.19314376882837
C -2.0179397459179294 -0.9306730755058666 1.7910915314556675
C -2.74404313921163 -1.803474437648219 2.601197469438647
C -2.3474199297737326 -3.1469071630274135 2.657399236222083
C -1.2386784742578232 -3.5960760103200435 1.9213319560565407
F -0.863669877105138 -4.897042369898514 1.9900014849567382
C -0.5218726441868398 -2.70399916576416 1.11476995764292
C -0.9292693229338189 -1.3702462736825318 1.064946332272587
C -0.35797651068942077 -0.2638638905136113 0.2400040312610938
O -0.4696697064354735 -0.5792153314877583 -1.1158007225329962
P 1.3698528112598152 0.10068674541629112 0.7172158095059447
O 1.4502333233433953 0.14893071465825938 2.2268173868456405
O 2.41969044963562 -1.1461235520925253 0.15034155056494983
C 2.874705254895649 -1.3070484999403993 -1.1697201771262227
C 2.557529738276232 -0.4156988696694654 -2.212310834565017
C 3.057607193877889 -0.6323181496704511 -3.5010329430131994
C 3.873038654078003 -1.7351354822326404 -3.7665168668219833
C 4.193806328494903 -2.621317515766321 -2.739312488932921
C 3.698211064707174 -2.4068830307284 -1.4476449383142969
O 1.8440972177470805 1.6369707566234635 0.09201689030611773
C 3.1439564904821404 2.154586960197366 0.1692661835074125
C 3.395547568231349 3.3677783910465573 -0.46323228706675457
C 4.676767124391371 3.9216828917977544 -0.43966450228013576
C 5.71910559852559 3.260883285548125 0.2140259396587613
C 5.480208915218792 2.0492418302324764 0.855853445250005
C 4.199141833152524 1.4982376169868559 0.8402802881577388
H -3.2952772036261795 2.2596209762869734 1.8846660764635335
H -3.835781596081167 0.9199554812657423 2.9136805792945304
H -3.757991718828721 2.149759035883244 -0.6568474474616423
H -5.465264537667374 1.5632617258800388 -2.329990354078922
H -7.269227178117254 -0.04189293264170701 -1.7676918956871555
H -7.3625528336198185 -1.0675198719769436 0.4838761489125932
H -5.6509560312858715 -0.515006660614454 2.1728498850994433
H -3.5920119897626464 -1.463106015939347 3.1729649881150848
H -2.8951690030696455 -3.8410495517313374 3.2738795069369586
H 0.3247403028113757 -3.044760429151128 0.5375195105399482
H -0.33323830725561154 0.2558929706939315 -1.6291762921577937
H 1.9316514117724604 0.4421948067125938 -2.053808068798676
H 2.8085612665725077 0.052296865566551394 -4.297888568253457
H 4.252956977801887 -1.8978165680241295 -4.768632778957075
H 4.827064471918955 -3.4757830041700597 -2.9424539683315505
H 3.954371935333124 -3.0995920924182867 -0.6567599317981299
H 2.5943783997228036 3.882991245721383 -0.976006006444129
H 4.860229519267619 4.862285279423538 -0.9250815470964676
H 6.710800074612392 3.685957105944992 0.2294132567321813
H 6.287554287832971 1.5414825903698925 1.3708327273054568
H 4.045048817682755 0.5673703501469951 1.3579296323007717
