27
060585
C -2.817383603711779 1.8621558151431041 -0.008945304152935447
C -2.023540975924165 0.8161700706615674 0.2680666804676946
C -2.5639294710006237 -0.3030556588244916 1.1226634686635222
C -0.6223746106796747 0.7418913241420313 -0.3142308594895877
C 0.39600715536355346 0.49080744079402905 0.7777665901008469
C 1.510018067401534 -0.2493040834824843 0.59046172153247
C 2.4518086644869936 -0.4391319547651646 1.7506184597043737
C 1.7559648826500323 -1.0133437240156127 -0.7064172677602297
O 3.113163618458055 -0.9669467150424558 -1.0693280753802616
C 0.8855900998571598 -0.516505234722667 -1.8753817405786193
C -0.5593681416498109 -0.3244053349604517 -1.4206488769261245
H -3.8262527247297795 1.9143537407347089 0.3899821423568154
H -2.4743854186050838 2.6782631267263177 -0.6374471093604469
H -3.465069352188315 -0.741213946814252 0.6437703739879974
H -2.836772700783479 0.08852118308797258 2.125366852743579
H -1.8121982870985383 -1.1090158421723462 1.2551335181297605
H -0.3532447648885985 1.720115896088096 -0.7730576401772901
H 0.25546223844746496 1.0024533687566448 1.7274296025837408
H 3.2617258212223006 -1.1557039660386574 1.5000463890357216
H 1.8978151331457174 -0.8381848786639441 2.6268916199255106
H 2.911436707531171 0.5345235275599302 2.0220527581337833
H 1.493041028175191 -2.0760861507519137 -0.5135356246378975
H 3.362648821636997 -0.010427172676235455 -1.1686501520061734
H 0.9178718995095271 -1.2589032120684343 -2.702068775078656
H 1.278801065087203 0.44820027217789615 -2.2662907796168708
H -1.176368085916473 0.001384765539741252 -2.2863929809989565
H -0.960467065796584 -1.296612656412926 -1.057854991201766
