56
061524
C -1.6307527528452879 -1.6173503165899341 2.9632479967646224
C -1.5675095719565897 -2.4885094152480773 1.7041696159060928
C -2.4103402004392698 -1.9545700092484828 0.5114449619301243
C -3.886884066555985 -1.7938787064618815 0.9334798723004154
C -1.8022713088572175 -0.6583598722132797 -0.1201476772050008
C -2.5821919793943855 -0.2185100697100927 -1.3889479301757124
O -2.337700286551336 1.1280933920055063 -1.6885907292223017
N -0.3763346924562791 -0.9252446129200197 -0.43943813850222624
C 0.650802613492447 0.16215492765459502 -0.4183354484001143
C 0.5394888780583988 1.0626303214044557 -1.6803558370375165
C 0.28822110185479277 0.4900897124223501 -2.9524276394048496
C 0.24964317667471003 1.2775822661914442 -4.106338472336028
C 0.5154825640444738 2.6424832500095303 -4.033654111595316
C 0.8535969592941544 3.2171953911447826 -2.8113818545673377
C 0.8936529056417765 2.4355767058628452 -1.6540763498245237
C 0.5355886347958919 0.9228603525328004 0.9313794599764625
C 1.1883645017795963 0.4344711143886804 2.090183153906146
C 1.0498387235982778 1.0781946244028433 3.3227355371969005
C 0.22956438003665958 2.1983699784488016 3.440452747071915
C -0.4676693893003325 2.667829494788277 2.329191643997122
C -0.3306766236682123 2.03126218210629 1.093157431165033
C 2.063142073656032 -0.4721360025502738 -0.4973170306086216
C 2.2734052328921766 -1.8716389343925255 -0.41734966592908396
C 3.5635239118992694 -2.4076270475725465 -0.464120648608183
C 4.6706503467489595 -1.567670906974269 -0.56891807353032
C 4.492751471909557 -0.18641709756024674 -0.6121529403785396
C 3.2070913008644912 0.35802202538922306 -0.5660484733830395
H -0.9153640528529016 -2.0081054078301244 3.717075766905112
H -1.3616136261212146 -0.5673533048162028 2.7420079934817023
H -2.647237208229205 -1.64376661575906 3.4077991741515707
H -1.9272613900205213 -3.506379211179246 1.9707926459507188
H -0.5051081006491184 -2.6097824159556 1.4057860321678468
H -2.381906362339814 -2.747960699109964 -0.269111803410635
H -4.561258092581965 -1.8465552491931274 0.05488878984572186
H -4.194889871776268 -2.622208059419145 1.6069411153010875
H -4.045811955560422 -0.8293546480841123 1.461095983132007
H -1.9120458683266097 0.13561621081463238 0.635971688092822
H -3.676726745449566 -0.3526479346621959 -1.2747435737054025
H -2.2854137127303913 -0.8423744228628811 -2.25779103084138
H -2.881360723727662 1.6658109504671186 -1.055286969906972
H -0.29891323391931957 -1.566581189399843 -1.2601484601135495
H 0.1328561780805747 -0.5689869287933095 -3.079179579303676
H 0.03008661044640196 0.822361554572277 -5.063579217543495
H 0.4913591348691854 3.248517584360481 -4.9300865895113235
H 1.106884748435127 4.2684361111108515 -2.7621984399445907
H 1.2326217080281212 2.9136806954221752 -0.7467304877180758
H 1.799510905165916 -0.45692922341313036 2.055957095568242
H 1.5678989974646043 0.6957860076345549 4.192735283295165
H 0.11807583005870932 2.690379882308753 4.397984425417871
H -1.127983232976174 3.5197933109951034 2.4274076388210744
H -0.9245722085874013 2.397259733155636 0.2683871725447057
H 1.4560994258653812 -2.5673646540394532 -0.29851366176536026
H 3.704881518886428 -3.4793959423669363 -0.4084309462778763
H 5.667970697136744 -1.9869376405841652 -0.6011893272133911
H 5.353966796504505 0.4665607333654517 -0.6716908021734986
H 3.1127759296900783 1.433578025950657 -0.5659913147525403
