54
061661
C -9.0464570079284 0.4005232811331079 -1.1954118619532306
C -7.745963205584566 0.5857649351400448 -0.47181261709798544
C -6.609442611609726 1.030961101468542 -1.1639213153706633
C -5.387666268795646 1.1674928850959798 -0.49825783155102676
C -5.286939706611471 0.8534403322107793 0.8632893130694219
S -3.7395026597169827 1.0067158946418966 1.6862369879670196
O -3.0380647115084893 2.242187914180459 1.1947064352258114
O -3.958242564599222 1.117784876216596 3.1693845477676756
N -2.793106363104761 -0.3829311570647511 1.3402441103771938
S -1.3236525631094564 -0.5339202552932546 1.843932804854993
C -1.1911616826362044 -2.020873799666144 2.809372172549214
O -0.9416382977329152 0.6465067921698044 2.695237785188713
C -0.23002162586889632 -0.6392726693594256 0.46721921290587726
C -0.6993702278547388 -1.0573171187530381 -0.7841633347997394
C 0.17674017301628428 -1.1544384535272714 -1.8674931953238598
C 1.5369869202640416 -0.8420309989822539 -1.7146588967153744
C 2.46267452493763 -0.9924990151978618 -2.890309308624512
C 2.0037078484485944 -0.3860690658327297 -0.460798969506364
O 3.3394084840725795 -0.025031794631875708 -0.2604973146686412
C 3.9469589344080696 1.0375731225596176 -0.9355400131940289
N 3.28714776144253 1.9576246484663384 -1.663812736002974
N 4.225076937114636 2.8040227567116194 -2.0678935749451637
N 5.409390990147132 2.4260025771251876 -1.60811825138183
N 5.261701835952588 1.3187253933874088 -0.9010478197546014
C 6.331064398051528 0.6196305445166589 -0.23940136106797247
C 6.265885914263108 -0.76861387278174 -0.015325098603233531
C 7.319609308726561 -1.4315988329964784 0.6216907346468483
C 8.448930970628988 -0.7203930422349099 1.0339565473022938
C 8.530309460005654 0.6546617693759388 0.8032289395902342
C 7.480041122863453 1.3216909211042518 0.1652809183393465
C 1.1230173290320191 -0.3155301236397502 0.624744696802227
C -6.414654515155872 0.3839609471599569 1.5504819026802712
C -7.637021201783276 0.24717618520271264 0.8856895195104459
H -9.903895742299456 0.5356291817056222 -0.5019133623648396
H -9.08695788951067 -0.6219358816947395 -1.626420923933239
H -9.147188590587874 1.1439547794694473 -2.014743929073797
H -6.6686537061183495 1.2706753794980747 -2.21849711132099
H -4.519410922682318 1.5115721430454363 -1.0458885589674543
H -0.1502844368902317 -2.1329190046427087 3.1769673112629286
H -1.8837993112455136 -1.9647854565788936 3.674358719445504
H -1.4557589465642538 -2.8961325958136155 2.1808329206200225
H -1.7409255684855804 -1.317074281949456 -0.9228841844641017
H -0.20501352120443006 -1.4874537369802343 -2.824898190348852
H 2.0966396382037886 -1.7822688239051292 -3.5806423191288417
H 2.519561846170535 -0.03399736764671367 -3.446334494613083
H 3.4799546824696965 -1.2877356061901846 -2.5570935835751265
H 5.419411588896926 -1.3483457324851729 -0.3549722809456859
H 7.263652944789364 -2.499570933274119 0.7887409157561988
H 9.263533236174819 -1.2358490793188506 1.5260582599766987
H 9.40781935484616 1.2044519242458078 1.1184324823695033
H 7.5575242525800626 2.3883792081580686 -0.0026089407983092405
H 1.4939909854848652 0.008463427137060017 1.5892037000167996
H -6.348653391522683 0.117048251597873 2.5972667732604227
H -8.497294202279654 -0.12403247228298923 1.4288036686098537
