61
061653
C -2.522832981990993 5.57695780542265 1.6661663000234332
O -1.54615503662534 5.229091088744493 0.6899115099560696
C -1.1991764606192763 3.9128923774570965 0.34614129245432235
C -1.8034533015220482 2.797568649350598 0.955379250319798
C -1.4334496229977394 1.5026900017646083 0.5882784881597298
C -0.46033743101959523 1.2944891289679639 -0.40239419346684363
C -0.0045016303768427805 -0.09657528042353436 -0.798919823197538
O -1.0539155937092244 -1.0582071807336455 -0.6518449996299515
C -1.19423325477047 -1.8886696628400579 0.46752075639294516
C -2.2900503064419295 -2.744678809917115 0.537055878817343
C -2.471723669473888 -3.5861634527794246 1.6459874035836917
O -3.5681890351067764 -4.45975942971798 1.735686838015642
C -4.586238936368562 -4.586355233967101 0.7478422402769094
C -1.5384867795375083 -3.557195540280999 2.7006255480737567
O -1.7267237355447977 -4.392386441190453 3.8027165570924018
C -0.42014266493411173 -2.685263142797234 2.639291430345336
O 0.5393005586633093 -2.582322425669431 3.666422035453044
C 0.5422290356608387 -3.2896514948532207 4.90128684360733
C -0.2441098298424696 -1.869694178029423 1.5022619392675503
C 0.9135169145325568 -0.901154829068438 1.4230260788014464
C 1.261903007270594 -0.5263618279593792 -0.02602267399934845
O 1.8292556660747523 -1.6600447033263057 -0.6705385212587389
C 3.115108273636454 -1.380794721565121 -1.19322563294714
C 3.022170658696138 -0.538224773610352 -2.44002661769128
C 3.4423858918261234 0.8025873913862418 -2.42953754878931
C 3.3013322105781513 1.5931798480906576 -3.574194083725187
C 2.7396487086058707 1.0523689336571629 -4.734003599540029
C 2.318824153154253 -0.28039969640849427 -4.751525004000932
C 2.457161565005693 -1.0739986627434537 -3.6086250381348473
C 0.15022381067920193 2.4082531181899838 -1.000667898629852
C -0.2152527427427182 3.7169832142357775 -0.6342564385816809
O 0.3789128777388301 4.8464063859339435 -1.2203530086828274
C 1.4005454183245996 4.797426603957606 -2.21156165640797
H -2.5931343785617385 6.6821606081234775 1.730604512978277
H -3.515391599195926 5.174030918381569 1.3736211408448202
H -2.2263411262353827 5.181169161973534 2.6605748776944584
H -2.559119785652724 2.920473986406358 1.7191234354247384
H -1.9098249206944542 0.6689021966020465 1.0846570977213914
H 0.2459938633550498 -0.06568226928589911 -1.8814349521940972
H -2.9976766350253543 -2.7425686907089477 -0.2806820519968241
H -5.1127293868966825 -3.6175678626428014 0.6157722449241048
H -5.321498575717905 -5.347101484069093 1.0808418352778413
H -4.144597472635311 -4.91735653954358 -0.21579368132552146
H -2.51131926650731 -5.02796450105004 3.88203166886375
H 0.6266214706398072 -4.381257565650019 4.719046882459486
H 1.4228715605272768 -2.969868847985202 5.494804093883367
H -0.3726867108002593 -3.050576128576185 5.4832427282750515
H 1.819995437193686 -1.3395665141642195 1.8940902716944368
H 0.6493542946347476 0.015052796778658815 1.9938071220099203
H 1.9573022049743507 0.34714124091129506 0.024489829716865297
H 3.7790563959732113 -0.9209363563852629 -0.4251569185486306
H 3.593491149242735 -2.346416790127723 -1.4616302833597845
H 3.8666123170502957 1.2391305430484436 -1.5339855387330101
H 3.6217276410385066 2.626958699651498 -3.5601472711195172
H 2.628392226937466 1.6663276200190804 -5.618124701192646
H 1.8806931226434278 -0.6973902353312402 -5.649127737175671
H 2.1152896196744084 -2.101445694684497 -3.6290703543231713
H 0.9125350196233095 2.246473742921143 -1.749935912349779
H 1.0313994064408807 4.269014706563836 -3.115808679395963
H 1.6807411757045376 5.8325812241585 -2.4950339011141542
H 2.298697215446274 4.283288975387654 -1.8086794108970141
