32
061753
C 1.200538063486773 2.126734118540323 1.5137510003594445
C 1.1036100344886592 1.2690533172662752 0.24099908426594593
C 2.4033666830804585 0.4509177979740903 0.03455273054441893
C 2.319361664756054 -0.9229716661008407 0.7000229165695412
C 1.1967166845830772 -1.7840332188460046 0.0926541799377486
C 0.02667435313504991 -0.9585978216559365 -0.5059514301283562
C -1.259621284526375 -1.8099528778223037 -0.5172425499011671
C -2.449811792556207 -1.0299265868164806 -1.0781083025037932
C -2.6899709145691757 0.2516374549793339 -0.27380622541684907
C -1.4401534951990784 1.1495795132509206 -0.22420405538879407
O -1.2371875522712994 1.790233115561096 -1.4619309619299266
C -0.18166933244499353 0.37213216087128 0.26985933732791345
H 2.073735604611648 2.8106989868074135 1.4513256191044779
H 1.3134299436569696 1.485573498064892 2.41366850083086
H 0.29111682459013766 2.7516550144420258 1.631803198921695
H 1.049901473816728 1.9763911064840918 -0.6146054423286995
H 2.5785793745265275 0.3066249661944425 -1.0548293015456174
H 3.2871122899770002 0.9997551772705499 0.42748419189457254
H 2.139129521580493 -0.7895293396562527 1.7891871858393533
H 3.291574755578158 -1.4497591261140512 0.5865990387164269
H 0.8286710956526291 -2.4686710643974235 0.8885723739312819
H 1.6232759721538845 -2.423643768943549 -0.7111844540331165
H 0.29112690098187527 -0.71824551751651 -1.5598466586454294
H -1.0987371465521045 -2.715950201888939 -1.1414743445699234
H -1.5044568556376103 -2.1456466502206197 0.5151858609951708
H -3.358749489777104 -1.66699446769816 -1.0219106100370545
H -2.277583467386652 -0.7911301099822562 -2.1494050903097275
H -3.5352857535862405 0.8153934355425806 -0.724592230400317
H -2.985413817269076 -0.020905215990199347 0.7635842574771871
H -1.6550110617121836 1.9480973304779055 0.5178859119648561
H -0.9637888623961601 1.1089202772888118 -2.126277365122644
H -0.3804804147718608 0.0825603626334973 1.3282336335805223
