59
062771
C 3.592367430736562 2.611495202037715 0.5265590818988946
C 2.359537378793712 1.7860033158381643 0.9683522019764639
C 2.6864916201814473 1.1187271646068269 2.328383511151856
C 1.1986908717352154 2.778545240284484 1.2128904415351356
C 1.963612562276042 0.702143282328927 -0.1237348072288553
C 3.1453323121201637 -0.2627409838516985 -0.3474508370161894
C 3.2908313258105304 -1.4249113350689975 0.4416192857017609
C 4.362037306992776 -2.2982720486661976 0.23598216240891715
C 5.305604483065079 -2.0286270061220826 -0.7557933074910977
C 5.180889007703686 -0.8837903098883932 -1.5438150923659768
C 4.111616286698888 -0.006249577260773016 -1.3439889503996922
O 1.6902840351137927 1.3578478312448208 -1.3736626610907945
C 0.3119968754587683 1.4804746564267006 -1.6819235059496307
C -0.39591523505146076 0.118440446899568 -1.7136859258832247
N -1.8471867597031195 0.2775108455979345 -1.542038634487438
C -2.4202131497428114 0.7744241569572845 -0.4859759499199584
C -3.889532152439688 0.8542904257748847 -0.38439967134170805
C -4.472331407974535 1.3586048092022402 0.7897894243975067
C -5.863318792501866 1.4335578265859417 0.9122409786152631
C -6.683134582603373 1.0054917533033387 -0.13500828571606532
C -6.113338716318792 0.5008974051840217 -1.306599400277809
C -4.722856321669439 0.4238056582227468 -1.4341624886861433
C 0.24691263397837207 -0.8165638847868657 -0.6673627574128619
C -0.719540154201071 -1.8363594656359152 -0.0927251481235017
C -1.1553829234319266 -2.903127005974533 -0.8989329370795934
C -2.073775669259127 -3.834835143671389 -0.4065304416925458
C -2.569310362439466 -3.7103108441399373 0.8932878661599684
C -2.147427376839926 -2.6537341654139643 1.7032849853593175
C -1.2280581148403185 -1.7197618277783073 1.2166904811559263
O 0.8380384994033756 -0.03962933414792788 0.3613775726775728
H 4.506140969598484 1.9830646035542165 0.4829215125649523
H 3.794492301045573 3.43154392908487 1.249585273616257
H 3.4271529882382006 3.06862866961713 -0.4722009781779418
H 2.8717287171037804 1.8858173004108523 3.1113772055598745
H 3.60606272668488 0.5012831405510624 2.2676208852567727
H 1.8453961593416541 0.4788104201595213 2.6704839401889986
H 1.0542591985803165 3.446868787465367 0.3387599345751705
H 0.25188806310345685 2.241629525466306 1.4337041458518436
H 1.4182711829612311 3.441685264667282 2.0778048628708854
H 2.574723097440602 -1.6584107454063415 1.2191119581035765
H 4.460430755246825 -3.1857132258115537 0.8477135276089605
H 6.134901843418955 -2.706245931178139 -0.9126665872654762
H 5.915475057880997 -0.6740994439645427 -2.3105454206327867
H 4.047135850054432 0.8776724607384875 -1.9651814162970362
H -0.18489342775351061 2.1711193953525236 -0.9773168923453401
H 0.21917348310106138 1.9517910999945158 -2.6831206541752004
H -0.22910401481238418 -0.3324557663520416 -2.7169683789906007
H -1.8182079393168196 1.104320035264676 0.35259736202739483
H -3.851249300062379 1.691966138624078 1.6124631042733508
H -6.305705833632588 1.8227757642048903 1.8201711227476813
H -7.759531396716398 1.0635318404697574 -0.038073879180244775
H -6.749568452709233 0.16828541979084172 -2.1166119257120832
H -4.302689972312485 0.027415924871323553 -2.34997783713879
H 1.0294301713136174 -1.4151574643293074 -1.1882920833126032
H -0.7878149488543202 -3.0076629526719394 -1.9123614458266627
H -2.404293051118803 -4.651881889410728 -1.0346806935886574
H -3.2823405502038927 -4.431162188077209 1.2719314096391132
H -2.5363280626694986 -2.555586549725081 2.7085607884234233
H -0.9278565260032529 -0.9031806514494368 1.8605239684596637
