21
062996
C 2.751950330034657 -0.020358399214965548 0.6259439468009781
C 1.7073645932563861 -0.23270702814952351 -0.47065789480387415
C 0.3134503120139178 -0.6006271410042222 0.08410124909795365
C -0.5793161322507896 -1.1205125475360016 -1.0581223669068407
S -2.281529929413563 -1.4442118764865244 -0.47273666051082425
C -2.718741007893082 0.25494637281099153 0.09158848237028035
C -1.5458985322225012 1.2385052876383444 0.17737472614745495
C -0.3381227712008193 0.5778197812453925 0.77731250285522
O 0.07782385447587581 0.955614588991277 1.862225276389031
H 2.53486590516084 0.9001770722753577 1.2052498964914489
H 3.754127447586968 0.09665200861667347 0.1621888478563941
H 2.781168850240824 -0.8938539442010347 1.3113489320068514
H 2.071149057233634 -1.0579014292308682 -1.1218814426381503
H 1.6396090485342343 0.6842317838861521 -1.0967580386978508
H 0.4202298174178117 -1.4261762207697355 0.8229062149854652
H -0.6112359477528595 -0.39975602650164344 -1.903697526776348
H -0.16449144037401722 -2.075104533030302 -1.4464445350754762
H -3.4864506478473767 0.6682222169388707 -0.5959202718299709
H -3.184578789021153 0.16354754424693269 1.095824335879594
H -1.2921459043645875 1.613824484746973 -0.8369680509699133
H -1.849228113614402 2.117668004727856 0.7871223773285778
