33
063734
C 3.7852300579933456 0.6882490986318498 -0.38848430911343595
C 2.8288276282807 -0.42428543474396796 -0.058515907815857124
C 1.4480931059459254 -0.20499396516385848 -0.06989607518140611
N 0.568611955144298 -1.2062377198354493 0.2515131593101988
C -0.893565372222139 -0.9479724866046425 0.22028341577489277
C -1.3895573210097678 -0.5779748480319447 -1.1769134580344112
C -2.60913677651133 0.3047129944109547 -0.9427748671822276
O -3.751305243870349 -0.4941152680615781 -0.7628159764727865
C -2.3131842979289168 1.0711906667093796 0.35666305163312756
C -1.7406861792242148 2.469830632398871 0.060396341259255165
O -1.5280440866817748 3.1632337520559832 1.2593390090506422
C -1.320086842691351 0.1994690917399961 1.1528468203453144
F -1.9436447573490672 -0.3174985693368535 2.2777539969834466
C 1.0598212543254826 -2.4438330542887567 0.5937549098099033
O 0.2781334286809164 -3.389217595609147 0.8898457772679269
N 2.4018872536279643 -2.6693346748603135 0.6203105996737311
C 3.2905494981985153 -1.6916922451649 0.3083161107099269
O 4.527497317759657 -1.9342808356285193 0.35209218752097743
H 4.543756360527661 0.3337093085701577 -1.1180106283033646
H 4.298467269763256 1.0223022013850849 0.5374549410287603
H 3.2580607257223546 1.5573043077052904 -0.8366513484871066
H 1.07996711280749 0.7779363271540679 -0.3364766914491673
H -1.4679181413438749 -1.8516978675077644 0.5245278997619206
H -0.6297413897955703 0.0030562848961378677 -1.7415414578965247
H -1.6417932899645586 -1.4854280537155515 -1.7682895958910834
H -2.7658083401138325 0.9951528699790309 -1.805317149563643
H -4.035563638888138 -0.7941587601812393 -1.665650089777553
H -3.255010874271588 1.2088337358762669 0.9353899703971238
H -2.4658645371893817 3.039049147342751 -0.5636561935406839
H -0.7839728112194131 2.381875518442315 -0.5017225196059245
H -1.1441780105056194 4.042299849564258 1.0047855359907996
H -0.44691877108387723 0.7904945145777672 1.5029751589081242
H 2.757077713087197 -3.6159789227056782 0.8884673828891052
