92
063834
C -7.325972428255495 -2.5312176735063923 -1.4301772084358733
C -6.648851262927995 -1.797826810692664 -0.32288985045767615
O -7.148995633124323 -1.8150567442112033 0.834716705955948
O -5.501197295019308 -1.0456914065640448 -0.6018121735581392
C -4.790515772135983 -0.28107082729647553 0.3769748422982298
C -3.3778788712386056 -0.8674198786577747 0.5835104885119221
C -2.422199065628867 0.14408198138184364 -0.06468872542764102
C -2.349795991747333 -0.20270449443572072 -1.6004197527952835
C -0.9659676782510657 0.1758215210224955 0.5248343724484127
C -0.1339467610639147 -1.0627997533072335 0.115457840169301
C 1.2170017400118551 -1.1706931527754907 0.8425895616018471
C 2.3967488543098736 -0.541155560750169 0.030409772883074105
C 3.824875512829599 -1.0682574451557898 0.49741967414629457
C 3.9748664303098993 -0.9201102959687234 2.0386706370626575
C 4.003733551044654 -2.5739644358962854 0.10643591978792531
O 5.2088653846225155 -3.0927112208842167 0.600342739057735
C 4.905007198384275 -0.2360928661287677 -0.2736251391786916
N 6.2800442460112835 -0.684647792207705 -0.013483823918105846
C 7.191131658550976 -1.039050513635907 -1.0692948650986196
O 6.911899849260044 -0.7377858605439951 -2.263133194708252
C 8.467018373451035 -1.7392587823450147 -0.7788533100641197
C 8.636236545492752 -2.4919567313698603 0.40130272408512174
C 9.838602098220065 -3.1661697565843236 0.6446852397683155
C 10.881170278410728 -3.099648850789801 -0.2834350656692804
C 10.723188768255552 -2.361000782989325 -1.4586048860821208
C 9.524209320487444 -1.685880488550192 -1.708304748003245
C 4.782879743468449 1.2120876548922974 0.0689138912232764
C 3.582603133859437 1.78210793069994 0.15318347374808708
C 2.2821009393202596 1.0467729004528183 -0.18271961488402086
O 2.013784323036433 1.274463971779656 -1.5521136243766338
C 1.157844348034535 1.7226371878051197 0.6660356189818938
C -0.2531401096763568 1.4843444886907984 0.14847194328467503
C -0.9225930190706055 2.540178288195417 -0.4104384504397629
C -2.4281447186713003 2.578763488740068 -0.6388743655613152
C -3.134204806448288 1.510031051804934 0.22651791562722148
C -3.033418998601634 1.9567921151077277 1.729271492921332
C -4.621940952207747 1.185035843766614 -0.11838299575305229
C -5.757833339995262 2.1087469838190103 0.43796022718990296
C -5.670443432391859 3.5485741325051654 -0.11860705458847244
N -7.085300275068291 1.476704173670187 0.18323292064614713
C -7.615275999498563 1.660944328921287 -1.180650371335053
C -8.093645548722415 1.8529011266415578 1.1873884500893632
H -6.570188108101995 -2.8994958010535328 -2.1557505011367604
H -8.027623662232322 -1.8467546261385124 -1.9497551627100986
H -7.8907941366455185 -3.3991595647808497 -1.0297378520042861
H -5.315045592534228 -0.2934134531389183 1.3594338768461276
H -3.167224694654171 -0.961234108251159 1.670482060523606
H -3.288058913488708 -1.8873621755781496 0.1494361918418104
H -2.086754457370148 -1.2703706680620637 -1.7522558534620478
H -1.5798073202950635 0.40113446257079444 -2.124044443710579
H -3.305889109750573 -0.06810554317427889 -2.1366204767785217
H -1.0419884624909197 0.1420913054659609 1.6319887582565082
H -0.7284590335584719 -1.971696344344084 0.3609014902223352
H 0.041137741766575336 -1.0784585464688792 -0.9811178951828012
H 1.388975917170209 -2.250974502786759 0.9894793417527656
H 1.1548573843806624 -0.7613747352075803 1.8712661350575808
H 2.2892005331120036 -0.9779187612706987 -0.9898523171793457
H 3.718379470049652 0.10680313702427768 2.3760718945566714
H 5.003842581050557 -1.1479095678903557 2.377211509276505
H 3.3059374127017587 -1.6321293738247546 2.56625357200366
H 3.188430314513897 -3.205889048497075 0.5057631308945356
H 3.9845236104113972 -2.674978149349562 -1.0034031656890352
H 5.3037621141097215 -4.002236169527197 0.21214698349189204
H 4.682517258582597 -0.32699439363175803 -1.3608499083319858
H 6.648226802061803 -0.6367828395912813 0.9643929248032266
H 7.838954112267418 -2.5830805038002578 1.1275466599774548
H 9.957714038813346 -3.7481255280935675 1.5497740980169936
H 11.810700880580887 -3.621571396812823 -0.09415660744299083
H 11.530433490584292 -2.313151295464717 -2.1787510739248015
H 9.425389660774796 -1.1166300482916387 -2.6250365378567184
H 5.668825854128764 1.800535252043098 0.2858457790636437
H 3.5547264144785893 2.8447165571875064 0.3841304444656362
H 1.9464904575112916 2.2536447331389775 -1.7026313458890985
H 1.2294974109723906 1.423872230511633 1.7311245174200627
H 1.330214167014148 2.8221718811816583 0.7048038379299348
H -0.3827024708445861 3.4554147239833464 -0.6402498998601642
H -2.7856501014251234 3.593163368562792 -0.3767299172066173
H -2.6461575100081345 2.44443479520253 -1.7201560400737763
H -3.507593456813863 1.2250309370827834 2.41337474858243
H -3.5264647015840964 2.93665937469427 1.88426295619081
H -1.9926984791826607 2.116634220702475 2.0702170024397453
H -4.7269152706734605 1.2105740970094712 -1.2215872364248894
H -5.619998958568858 2.1815604914098485 1.5385692081395363
H -4.844471929519097 4.106080873828208 0.3631706254707285
H -6.599303868294483 4.115112564734341 0.10245243603608406
H -5.50776170702669 3.5414627784632713 -1.2187077387436989
H -6.843438473057569 1.45052766828966 -1.946564700750517
H -8.44590392235856 0.9434377451892085 -1.3519677760844397
H -8.001945413515804 2.6923552566781592 -1.327633300428999
H -9.025681452260658 1.2671304466376534 1.0265985967806293
H -7.731342874401838 1.6146124158704886 2.211453524930617
H -8.335423884005637 2.9378187829181686 1.131590214747308
