40
066070
C -4.377917855617191 3.0318222121567664 -0.27165754365411765
C -4.297225275493368 1.8020548211581346 0.2444835561729001
C -3.0310274524247096 1.2882427955815663 0.8789663244144388
C -1.912307590929453 1.0490771457858998 -0.1561899318898797
N -0.6775598999746234 0.6320513408959881 0.5175098488135794
C 0.5863290107774233 0.59843626372649 -0.1552061882990096
O 0.6755202118234613 0.9572885711744429 -1.3619554193427281
O 1.7177988955229597 0.16245917325064455 0.5390508889324503
C 3.0070468746176875 0.09239889172623647 -0.059978546524804666
C 3.9936071714108996 -0.41936959817932723 0.9480289654611038
C 4.2017058916303744 -1.8005613342860418 1.096679967968792
C 5.093757145243884 -2.278022346101114 2.0621910244850596
C 5.7731810267106365 -1.38204453817123 2.8923301832090753
C 5.55793382618195 -0.007208427408652632 2.7616610647823094
C 4.666806735199756 0.4743189529262654 1.7973043749574162
C -2.327998793018243 0.003159334368315036 -1.1722163771419625
C -2.4181728304193313 -1.3540311377006524 -0.8109980189681304
C -2.81961597857065 -2.309299573578916 -1.7494749275628418
C -3.140641592943846 -1.9198178553653278 -3.052183949507844
C -3.062948950742103 -0.5737597795081267 -3.4183002690825046
C -2.6613908235170656 0.3853870996243757 -2.483610561228404
H -3.5243385795825524 3.70249940569514 -0.25536753134173573
H -5.307772028030808 3.375015028829316 -0.7131364383599965
H -5.1748039739508425 1.1625781150542072 0.2282878409997825
H -3.2575280068565227 0.33918026009913854 1.4118068801448735
H -2.6845857623970693 2.0213439860728806 1.6401330409016166
H -1.7097636622354115 2.017819847854059 -0.6659226334222026
H -0.7040494579003583 0.3396708632634846 1.5209566041766378
H 3.311019743940318 1.1016310350787302 -0.4149425996577603
H 2.974833538840502 -0.5856737496924871 -0.9410209702486592
H 3.6740436075494847 -2.5058644562567016 0.46647367292001574
H 5.255362582172331 -3.3428737087592286 2.1693953163153896
H 6.462133801599511 -1.7532167934602816 3.6400218804928186
H 6.078709475373643 0.6853294567468061 3.410282437990214
H 4.501608778971615 1.5413587717853274 1.7129496632572365
H -2.1770968304387432 -1.6712172122827909 0.19586650059272628
H -2.88357132516754 -3.3518623562259986 -1.4659849262101172
H -3.452092242201787 -2.660610194401754 -3.777186369709241
H -3.316133670785021 -0.27276750470163297 -4.426635797126166
H -2.612855734369195 1.4250771932260524 -2.782411037710327
