50
066290
C 3.0773980914979386 4.533705759066899 0.8856819691403942
O 3.1112714854502417 3.5586321808169905 -0.15149084946161323
C 2.288728698133025 2.4231635295322014 -0.19797800936589463
C 2.414328246758499 1.5559259462619077 -1.2873388378653075
C 1.6282326965658174 0.3961505286739302 -1.38369835661579
C 1.8139091374846963 -0.5074517672685825 -2.574933617798449
C 0.714333817812653 0.08750799754111752 -0.3456064331000149
C 0.5344550023659779 1.0021026985374557 0.7007287934816403
C 1.3404668781886533 2.1395918299060916 0.798553220324192
O -0.5098221269993132 0.8078543905904475 1.6034263042086514
C -1.837395852132703 1.2562894075702196 1.3123666543818024
C -1.9697939063254624 2.7368079334346405 1.7185288738020021
O -1.3248845739944564 3.5687554134170227 0.7934200527919023
C -2.2250195733075686 0.9736780379549672 -0.1771139689434774
C -3.582588374720529 1.5920156303519908 -0.5611234160169225
O -4.596736895142736 1.179142377021047 0.31640959271913244
O -2.321428466883095 -0.4311234154244558 -0.42005181038183614
C -1.3467847853901904 -1.4416700097634956 -0.30989687795465964
C -1.8528484476113236 -2.7463199217590737 -0.2746599721558697
C -1.0113769339600531 -3.8537266620475896 -0.15075309513460508
C -1.5895626094010398 -5.236417623185871 -0.07127310287979575
C 0.3632620542984934 -3.6585202906358787 -0.013055572098335327
C 0.9101098548785428 -2.3646800438865694 -0.054484040294479036
O 2.2906267436795003 -2.1511460015988053 0.11174675424913227
C 3.2576377385384268 -3.180002119769757 0.2941123662790408
C 0.06461687511683158 -1.2456692115288617 -0.2508405217898303
H 3.323762163497114 4.062722596602805 1.8607395408280458
H 3.830495332387898 5.31891292353791 0.6698578658464058
H 2.073608671121006 5.006726911754734 0.9321634776052193
H 3.1369398858159125 1.7861503435092076 -2.0612119770063955
H 0.876532271167279 -1.0531400653496061 -2.812101272358499
H 2.623940902653542 -1.2376151781514504 -2.3710934753238173
H 2.0881074965019226 0.08441431929036897 -3.47410731808128
H 1.1957044141304127 2.809966055613086 1.6346275442792242
H -2.5271866258843105 0.6779264298778863 1.9647372891034611
H -1.5197908768831112 2.87798386581715 2.7268950614778746
H -3.0444725106134185 3.0151320459421767 1.7901073514371513
H -1.4353498594658545 4.495033619594843 1.1315194495343133
H -1.4828804622796108 1.4172249905749148 -0.8736072245771219
H -3.5215018195678987 2.6999398707648243 -0.5462765232046586
H -3.8403676390540324 1.3068547226789238 -1.6070470671098411
H -4.844509880697547 0.2548002697310656 0.05268080778978327
H -2.9247369873083406 -2.895235443779582 -0.33506144358033396
H -2.5343077333123643 -5.301559024054283 -0.6520832949011311
H -1.7983084866466386 -5.48894329544246 0.9892354319154023
H -0.8799211065462348 -5.982223399943826 -0.4887053127457328
H 1.0008356074191498 -4.520607008727941 0.13061523032692976
H 3.258247839280186 -3.8626187338237954 -0.5817052722059737
H 4.262472434550079 -2.7193278122272377 0.3851932196958283
H 3.041552194834039 -3.7471155975977055 1.223951811734138
