43
066989
C -2.191300154822457 -2.949503391353367 0.6199966797371192
O -2.37421462331874 -1.5925930943369957 0.9728881053485295
C -2.3212246245866393 -0.7040909452728602 -0.14397179034673627
C -3.721570143873892 -0.5972785868166022 -0.7765201202756105
O -1.4202335302495481 -1.1777756639517292 -1.1515485329059083
C -0.05894795998364854 -0.8809386240574058 -1.1325390557521227
O 0.6807239338695381 -1.3732844126314712 -2.023318086440713
C 0.48620852601514697 0.12722458293183592 -0.1341805987943655
C 1.7806921847433983 -0.36161594049145535 0.5992056298616776
O 1.7644130645675358 -1.7589665419345293 0.7864700247919951
C 3.1571926511022292 0.16860385926855892 0.03537488076716329
C 3.277546025406875 1.6945548575086844 0.27036325847845916
C 4.317677903580617 -0.5109214239071079 0.7994832896274899
C 3.3375793367813595 -0.11005650071828797 -1.4723471214900201
O -0.47611003031590365 0.45283047260930104 0.8658966205021299
C -1.788460584505276 0.6797906154325059 0.36420224420949543
C -2.597233007190399 1.1807957721196853 1.5986640655644195
O -1.7057810649787226 1.6114897049698034 -0.7290922788984948
C -2.704760726873648 2.6107621085140877 -0.7715760330755657
H -2.492421407654348 -3.5801401173493606 1.4811916027764513
H -1.1184502745943925 -3.154717402870004 0.416569500125678
H -2.81401862590639 -3.253115929330565 -0.24795695983570215
H -4.060477157167501 -1.5866128752723363 -1.144709800868582
H -3.703033347802921 0.07828807318040344 -1.6561771271320496
H -4.472621941706106 -0.24008760293538334 -0.0438077683700286
H 0.71475671156381 1.0526309113103225 -0.6985748156838282
H 1.7242436757314836 0.05779689330133639 1.6293591097527063
H 2.049790059466742 -2.1907789239136526 -0.05729657943258521
H 4.2810292912550665 2.061137817356465 -0.037473774290596645
H 2.5289679357582093 2.263836988900718 -0.3165925831726848
H 3.140339246704634 1.941516065002102 1.3451636698425729
H 4.213976033591607 -0.3481674961386547 1.8941539613994156
H 4.3378375253768695 -1.605012117353712 0.608822088104878
H 5.2992640259020645 -0.0980896488508055 0.4798108838387303
H 2.5658914728557485 0.4143170391454197 -2.0727423805272474
H 4.327862861280589 0.2585744643206314 -1.8176571877056895
H 3.295370950845393 -1.1966160463657733 -1.6917948781662904
H -2.5175369843613806 0.45513623460171615 2.435787992326256
H -3.674711738728941 1.3238477951644956 1.3860872731526355
H -2.1739414760759566 2.1390396626130936 1.9674236379116619
H -2.5331017216026983 3.3733068839798346 0.01680986258066476
H -2.6318907140660905 3.13277575695032 -1.7473381644046886
H -3.72932157603332 2.192106726670736 -0.706508743130616
