54
067586
C 1.9685166400500027 2.7068241210037933 2.690603465684721
C 1.7815463841991392 2.3702104159807273 1.1969005872584566
C 1.2725628656306087 3.595840542530168 0.43877612985670156
N 0.8373458534617514 1.2432480377373436 1.0090866503073264
C 1.4710876835179352 -0.09757568758669193 1.0869604198661234
C 1.117913311900773 -0.8199275165617061 2.3900190003015633
C 1.1150460681152485 -0.971351465181235 -0.14935076661546576
C 1.7503131234945912 -0.4334217687807803 -1.4275785740893068
C 2.776378433510451 -1.1560844786135027 -2.070390196490478
C 3.3201534716682755 -0.6961421476276768 -3.273622326495359
C 2.8685137927678426 0.5013898896450196 -3.8339897823366402
C 1.8764011030506025 1.2405333705416803 -3.1954470395758867
C 1.3068219005367405 0.7679337852525276 -2.012142685931465
P -0.7370552589058837 -1.2648611555453495 -0.37765980892576356
C -1.8318443768397166 0.11840202893576787 -0.8966928595058059
C -2.3818850514841015 1.0048162550198172 0.042024930921707275
C -3.1756966425751765 2.075874646253383 -0.38451826049653315
C -3.4238469563827842 2.256474832182368 -1.750283999746604
C -2.880466410598864 1.3732232124036827 -2.6922890682161063
C -2.089422141590875 0.30290170694443025 -2.262650223687979
C -1.542093979566348 -2.5795286428820794 0.6367068220061539
C -1.4112146627201785 -3.917443325793805 0.2312592938995187
C -2.0134613728669546 -4.944282928339054 0.9694246343528509
C -2.7475584146513694 -4.639767022897868 2.1220250176340425
C -2.864651480414924 -3.3073267292830146 2.537467095884733
C -2.2566873923892152 -2.2806176525567996 1.8021634386713077
H 1.006559293240648 3.0032000706677917 3.1581782583384923
H 2.7026482875095517 3.5421356752055164 2.8123443192902142
H 2.3677439215311518 1.8178079560269658 3.227993265373543
H 2.781324653050383 2.1260733721609313 0.7640002971118673
H 1.2794141014578206 3.385056465983589 -0.6494952314750235
H 1.938586106651328 4.460853039025768 0.6196356985897938
H 0.24342497989904052 3.8556846901173354 0.7742246351563219
H 0.018252758546656596 1.3391803725316105 1.6615868975734804
H 2.580241266104425 -0.024298025978464012 1.1144919123936319
H 0.02455103275756708 -0.8862567536026522 2.551856887644779
H 1.5802074837811095 -0.2870153393023716 3.2267452967568024
H 1.557475190292303 -1.8462313050295054 2.3823589124244426
H 1.5234982443848872 -1.9923993629023045 0.03654132959367857
H 3.1615551866373184 -2.066969845332015 -1.6404832012101513
H 4.104014585891555 -1.262480358488883 -3.772502198419768
H 3.302329324611952 0.865987163837458 -4.7575878759773
H 1.5599600691644482 2.192681149482595 -3.6081663553988452
H 0.5108474911594093 1.3394780968605964 -1.5671597584274926
H -2.1994985047608813 0.8698364810712398 1.0962580813123755
H -3.5946366904517704 2.769894715230422 0.3401955852166005
H -4.024000018172643 3.091627833362099 -2.0832007032010207
H -3.0663550906964265 1.5162169635791938 -3.752030044845692
H -1.6611565094466685 -0.37462551519073234 -2.9918408649740735
H -0.8605754608906109 -4.15544976044329 -0.6707069247043675
H -1.9215484242012268 -5.973345007276368 0.6456370127139283
H -3.2209961853509093 -5.432544045426715 2.6933059436143347
H -3.4194452703798985 -3.0690171456563022 3.435185889653705
H -2.381138313238091 -1.2544239032946558 2.1258310413439325
