71
068422
C -3.69968836823254 4.788100692813433 0.324721444444255
C -3.8608912126619295 3.4833443017405465 0.07686884926071627
F -5.027427816595078 2.8812988502163805 0.4366506296297635
C -2.7776639446394022 2.672645029995312 -0.5908202853972458
C -1.662554158895245 2.3557529911016015 0.4250431801910132
C -0.4988670071083213 1.574289100536175 -0.20496372565250545
C 0.6469169053977724 1.319394378940944 0.7860383860342789
C 1.4717021481218067 2.586607258493906 1.0797206949905207
C 2.7784511647269894 2.267347459691072 1.8364988016548567
C 4.026987619178978 2.270399817395894 0.9367335963889049
C 4.016136428879149 1.1426143687864927 -0.10462722876325596
C 5.349610069813879 1.0792764446423952 -0.8633879598796363
C 5.306580142241566 0.1285719361154224 -2.0736868456862285
C 4.975950549654803 -1.3384580476435233 -1.7411877512311793
C 6.034866558408246 -2.001575652495642 -0.8444179935426971
C 5.727099379215969 -3.481899695386779 -0.5665603276902421
C 5.984560937846043 -4.3788787158917915 -1.7778045762738022
O -3.3591482865432316 1.4656922540406156 -1.0881435575076475
C -2.9656078074982384 0.8311688184794089 -2.272321111445849
O -2.134586666607066 1.374076984852504 -3.0513395757323716
C -3.5737322439288643 -0.48464809811937243 -2.640781674692281
N -3.5846140027893325 -1.375765263209226 -1.4834792314335996
C -4.598618755289974 -1.318775842339216 -0.4738809743896843
O -5.5824490501903785 -0.5432009422250192 -0.6118428836077577
O -4.472617543546692 -2.1336202478632926 0.6616331250259625
C -5.350293020387493 -2.1463191249150757 1.7973575753051274
C -4.7931160118787375 -3.1783405566748013 2.789802652388637
C -6.7710907744448905 -2.573228643260435 1.3814975616805285
C -5.375621759609868 -0.7636340543731566 2.4776268055967368
H -4.490736146803309 5.351260200850741 0.8114218898451152
H -2.7790967201625123 5.297142711349441 0.058836630398033336
H -2.363977292982968 3.273645724311816 -1.4325591785641771
H -1.2771379650674206 3.313145254281983 0.834666017125659
H -2.0880833444988043 1.7639816385481117 1.2657456866999564
H -0.8733233919027183 0.5840964353508468 -0.5424258293197246
H -0.11309810097680513 2.1150106122761496 -1.096891703316074
H 1.3025865196676965 0.5388247431684114 0.34859917392497797
H 0.2405582866456926 0.9088773308708199 1.7353125521022283
H 0.8608079972827221 3.265673014286048 1.712136946164156
H 1.6940347228777997 3.1333804796651465 0.1375303389315242
H 2.9306743166972202 3.0499654035439123 2.611930053912679
H 2.702871508709432 1.2989730732342195 2.3786533155887035
H 4.114932023887607 3.2539268864844626 0.42480482473665765
H 4.91962566672218 2.150869994190583 1.5897658807357777
H 3.195854856062891 1.3216759642691813 -0.8329864536088388
H 3.839593382024734 0.17628606815014122 0.4145986636594477
H 6.16826809164259 0.7886074520930633 -0.17200919905597942
H 5.59529479257128 2.0946034246042102 -1.2448330513212924
H 4.548819274962411 0.5041392654578281 -2.795716416150634
H 6.290985404306834 0.16751189815426998 -2.5894299157235707
H 3.9739950935391017 -1.4105552140072721 -1.268118786660443
H 4.919268667151774 -1.886607296512519 -2.704492612168543
H 7.0418983483725635 -1.9042799084535371 -1.3060970400864098
H 6.057940624567697 -1.4808435829251168 0.1358589502361231
H 4.673333343414554 -3.598915555020003 -0.23086638247154073
H 6.383411165946091 -3.82505746867045 0.2636217269316289
H 5.8570796820997755 -5.441326188082396 -1.4814765777815455
H 7.021591284577475 -4.239922878237486 -2.15139387549878
H 5.265166595128478 -4.160554028723473 -2.593764878020314
H -2.9807266013706775 -0.9556769833918587 -3.454141677023626
H -4.605540794598971 -0.3287139711092623 -3.020521489776232
H -2.7683381626149477 -2.0074791617968226 -1.3332136299412334
H -5.427996025582703 -3.2391800527475776 3.700483862898815
H -3.7607509271111583 -2.9030090722514066 3.0969651386141868
H -4.754190874905273 -4.183788614746304 2.3171152259794994
H -7.412023882187136 -2.720794831125069 2.277946576183744
H -7.256219697401942 -1.8044744370494772 0.7450256749520556
H -6.7330077903519765 -3.5255881242853615 0.8106120626780543
H -4.339873536535469 -0.42805690133815344 2.700804515297217
H -5.8543887283577 -0.0017852430021382897 1.8292730428336246
H -5.950355138084007 -0.8072238651104576 3.4282823463937664
