52
068403
C 3.6636842589499348 -3.840097547492149 -1.883278057613308
O 4.0011501209082025 -2.492342631180656 -2.1953981204436457
C 3.126059239250855 -1.404888755034713 -2.0548946021483836
C 1.7972376429921981 -1.5552339050895883 -1.6145247040504216
C 0.9683616946636129 -0.4380865711307908 -1.4768349313059137
C 1.4571519188614952 0.8530613147550944 -1.7534156560668506
C 0.5972974038581697 2.0897162895367423 -1.5738506313609093
C 1.2122688736398426 3.0653856795320267 -0.5868096682497426
C 0.003694246862990358 3.802000998976709 -0.06745691463602775
C 0.02258745208744081 4.033145683322852 1.4336292900602177
O -0.5493263498115866 2.912823202623071 2.0596303158481573
C -1.4831014337669244 2.3739485427905156 1.1493711791027308
C -1.5454914528860628 0.8718869094154514 1.296652443836327
C -2.7256688842385777 0.15400004346061977 1.0376098687854927
C -2.7856905687031213 -1.2159720309038466 1.1059091986850786
C -1.659767194314035 -1.9992982414953744 1.4351156744540259
O -1.6649918930356329 -3.3980952073942285 1.5222612379085458
C -2.7955558158875387 -4.215109434328391 1.2409525463733864
C -0.4799380012139733 -1.2836525089213215 1.6765397343828323
C -0.42094632188928177 0.08466640523591645 1.609009586021311
O 0.8748815054184704 0.4921027005708563 1.8647011112317415
C 1.6770198752061516 -0.6723763238846556 2.09697052250982
O 0.7734105320666937 -1.7794425937032379 1.9782023370928434
O -4.070797670164725 -1.6224641923149414 0.7984752538422115
C -4.8613807423383735 -0.4598533090054774 0.521593341709594
O -3.9665838140491063 0.6475431799544398 0.6825977571048131
C -1.1204558606892598 2.832712670340191 -0.2759108942458907
O -0.6923130654521875 1.7682219861300232 -1.1043380664856428
C 2.776145195056978 0.9918198780784304 -2.221647188768221
C 3.6009029113152105 -0.1266847446483982 -2.366310008145742
H 3.38391860448916 -3.9242092417057535 -0.8110730149872295
H 2.8254197908208 -4.185333603397759 -2.526171947976153
H 4.5451362747433635 -4.486246857516955 -2.0728269208484145
H 1.394925128402988 -2.530098304052854 -1.3749745960167283
H -0.05243947432350084 -0.5919804063006189 -1.1507468070296152
H 0.4928791136644738 2.5894133319811403 -2.563775421682542
H 1.9269776671297303 3.756937099336836 -1.0820223721809559
H 1.7301428462919972 2.5131656407157554 0.22956396369583618
H -0.15902428952183142 4.74819774948699 -0.6313787548679057
H 1.0550358691231445 4.195199953322943 1.811194405536983
H -0.5808879785817984 4.93411544099597 1.6826993487043669
H -2.481143010956465 2.791857180467218 1.4111838125772327
H -3.0896076149364924 -4.097057223384739 0.1786693465333402
H -2.5256623857592064 -5.276191718740479 1.4147908446020798
H -3.6410236993167895 -3.953349681776011 1.9112322464333218
H 2.4736702642319797 -0.7461930599528471 1.3276586525193517
H 2.1144475657807713 -0.6389837781031302 3.116668501757147
H -5.242357609093515 -0.4956285140097998 -0.5205562284561132
H -5.6982974087049625 -0.3843082334708319 1.2466955773824413
H -1.9908308798778462 3.3384775728460885 -0.7494058062870349
H 3.170684636963168 1.9707334740344804 -2.4650960938776065
H 4.618192786732971 0.002045691029188992 -2.7168806909602328
