63
068920
C -0.06149536109520728 7.010264450841459 -0.13287967170674006
C 0.4323248644226578 6.901933117090224 1.305233547249486
O 0.5957831765119656 5.53394616295996 1.6725833692537622
C -0.47296551821333566 4.690495534517012 1.9917829640237787
O -1.6512466178555358 5.137390973738672 2.052042595428322
C -0.21314079116100204 3.2397066036997866 2.248868304543595
C -0.7003235168466577 2.3916587340738604 1.075883026780531
N -0.4495619232255085 0.974975591509005 1.329049919445914
C 0.8437166786023805 0.3798725791455293 1.152697025475454
O 1.825814033776873 1.1024545627395321 0.8294037752439832
C 0.9955044186249389 -1.1258831104655158 1.2526890718093318
C 0.9417537733098382 -1.8020775415003474 -0.13484310430743307
C -0.44698256759877375 -1.7473828951680899 -0.722123985796162
C -0.815314026896292 -0.700492013489211 -1.5786202213933815
C -2.110556080119113 -0.63565081710613 -2.1008234971067687
C -3.061949628760173 -1.6172805466101687 -1.7754754556117995
C -4.436245731432221 -1.552868510064092 -2.336126708905049
C -5.5532516897265 -1.8602237008114948 -1.5344838865836385
C -6.844661390784348 -1.798763238794253 -2.067349037856341
C -7.03610725099825 -1.4348325505930586 -3.4031409341276597
C -5.935966973986059 -1.12892830371624 -4.208867263136321
C -4.642981860490461 -1.1848996103970706 -3.67965594058143
C -2.6915137626047225 -2.6588580397956054 -0.9073941678785208
C -1.3981038306538565 -2.7195543019264194 -0.38142668479239344
N 2.18616388922668 -1.5457165528401442 2.0222402081654383
C 3.4856232801025584 -1.1211509157436181 1.477219172976546
P 4.700920192412217 -2.4462513073721532 1.7446638275080835
O 4.775677288574038 -2.720086654846208 3.2285200460368904
O 6.247105793998921 -1.9818518241061975 1.1958410648920648
C 6.1800752143684825 -1.7243913945951221 -0.18833428199147864
O 4.1620770036212855 -3.840665761743465 0.9201312808972846
C 5.023301470333212 -4.907620457648211 1.2428441733952218
H -1.0645833240805427 6.545433303118672 -0.2322956671132047
H 0.6470114266602169 6.496554755068433 -0.8164423374923468
H -0.1325047282271923 8.079400748047 -0.424988342559949
H -0.276924472605918 7.409887370435028 1.997451677496533
H 1.4174377951445047 7.412309740739009 1.3857423863676288
H 0.873413568553507 3.0845278153108677 2.4014863578702577
H -0.7382324301588046 2.929395497961592 3.176348705212939
H -1.7917633678055223 2.5447275513350696 0.9418920256603469
H -0.199766682281761 2.700757589982235 0.13410212977608973
H -1.2693431730911398 0.356601259915034 1.535676411851459
H 0.12050807942732983 -1.507864013987248 1.8253485358533323
H 1.6546749461964103 -1.322894080676121 -0.8397986190714664
H 1.254383899532327 -2.8653785568865384 -0.03664797579796091
H -0.10069674072840956 0.06974608533834871 -1.8367538464289042
H -2.373835633200962 0.19047101332803615 -2.747006551516657
H -5.430574022080342 -2.1330261576637355 -0.4921268109832781
H -7.697867461920938 -2.0318278497176085 -1.4414012042600106
H -8.036495048268494 -1.3901646126337457 -3.814060694439327
H -6.082952088531146 -0.8504714984554517 -5.245335904857242
H -3.8030175758436036 -0.962060314858749 -4.325254631402152
H -3.3966534457633886 -3.437480464161975 -0.6482884258658641
H -1.1376134046318755 -3.5282719261940456 0.28928279254616157
H 2.0978914577859107 -1.1914633847733151 3.0059375866312537
H 3.4379226810692436 -0.9175686332071384 0.3926495299878424
H 3.840190269064094 -0.20260676506241398 1.9907912032344535
H 5.631131855941508 -0.778319121029879 -0.3872706001252756
H 7.211184233639984 -1.583053636897151 -0.5670590057499154
H 5.73676145159247 -2.5740399093376047 -0.7559432856603313
H 4.705501202557316 -5.80145996417957 0.6684896142047961
H 6.07418018943181 -4.685113428825261 0.952108860301963
H 4.957157987185367 -5.164016673013995 2.323217554978259
