48
069468
C -0.7033368688689644 -1.23115503116505 1.3012982813122036
C -0.9809108129651454 0.2533675281965063 1.3091796817341839
C -0.2785820282046959 1.109023591262888 0.5330944418747591
C 0.7969177669160542 0.686699189226155 -0.4298541143452118
O 1.9112991741450738 0.1589146880971267 0.2827859005067309
C 3.1553929739714084 -0.03043242159775091 -0.32603357442993885
C 3.953776935097471 1.0564572103033378 -0.6969528952876969
C 3.764244316690255 2.4139602648350302 -0.5566749859952158
C 4.911432097210427 2.9884714825103824 -1.0912910671414982
O 5.7400609038384784 2.0522852605574275 -1.5160627006207565
C 5.181379608005207 0.8906595697532174 -1.2810235118498114
C 5.7082057837564255 -0.3701005771303277 -1.5444625617925436
C 4.9446301547929865 -1.49415854612589 -1.1816655168853676
O 5.4216717793818425 -2.714145399944592 -1.4132788345888472
C 4.7510895110726254 -3.8183557829063135 -1.097586083574827
O 5.257504170052631 -4.9449525978067435 -1.3413746838226837
C 3.4902767664647185 -3.735833778266547 -0.49888583369975936
C 2.944767336967381 -2.4810039440968326 -0.2337686593013951
C 3.6659795603520675 -1.3286486414806553 -0.5679439211807955
C -2.052361798628404 0.8009782945525888 2.2316135891376665
C -3.2882427493602435 1.2901307166998859 1.4635304381037701
C -4.03521326459258 0.12320539228684826 0.7968016549774276
O -5.268120712734127 -0.1503417745404174 1.43334941733932
C -5.342419166825813 0.3969345776968702 0.13540217232105797
C -5.938131961348411 1.8091957099942784 0.1231091220505303
C -5.835028822262224 -0.6174523840693897 -0.8958725909515108
H -1.42665281951878 -1.7806941802475662 1.9390976233611643
H 0.31498313361638125 -1.4259820774963405 1.6963266987374437
H -0.7907998156407038 -1.6345115637277945 0.2713646240733021
H -0.49964671725256427 2.172584241746862 0.5867798552856869
H 0.40639185020789026 -0.07485175625485105 -1.1378732106963962
H 1.1060125791842605 1.5727359611266025 -1.0233422594406558
H 2.9191602639017606 2.9266618340023154 -0.11692168632138614
H 5.11179362999753 4.049539320642105 -1.1530184997552722
H 6.681415172241208 -0.47908883422435833 -2.0058083807349063
H 2.9394589035419814 -4.632721216629244 -0.2434331385736154
H 1.9664759952815987 -2.4172263518595694 0.2229777668191163
H -1.628162787880073 1.6474133375467204 2.815152587173369
H -2.367699279027452 0.03475927249464945 2.972895683069003
H -2.9861712285312936 2.022854466372057 0.6847917540310192
H -3.9473206178446496 1.8182804519111686 2.1863097124812922
H -3.4976723248524633 -0.8049603823326683 0.5091875886997631
H -5.336692188269543 2.4600725988338414 -0.545284258616064
H -6.979726145286561 1.7757966412933184 -0.26004882908874677
H -5.969321160216436 2.255970887649606 1.1382430097680254
H -6.939842019062456 -0.7099005678158474 -0.8302161036449159
H -5.390091086385696 -1.622355787952982 -0.730820220792682
H -5.562173991128392 -0.2680788919200554 -1.9137934797243348
