47
069516
C -2.101784193333903 -3.5829963069977935 0.4504961007703396
N -2.5307635856781463 -2.329843242356317 1.0925984000121733
C -3.5463786861154865 -1.595497720553881 0.31837301439646826
C -2.9545771687242657 -0.8437929390505303 -0.8799893959754683
C -1.753920339861864 0.05379682268862456 -0.5211505413976527
C -2.1740642898610836 1.4572526117979627 -0.08562579769049754
C -2.8290977439941307 1.7032675420797954 1.1376094202757006
C -3.198878692600115 3.0017982695136594 1.5005096553104933
C -2.9235672900685117 4.074906401394615 0.6507037596968629
Cl -3.3889976663254604 5.702493064943258 1.1102286881000412
C -2.2774261783543754 3.8488986970593033 -0.5659510182643854
C -1.9061469608635797 2.552531453728362 -0.9329241566266417
C -0.7426524859486886 -0.6217746092929635 0.4554079113372322
C 0.3391943768105713 -1.4274100315611908 -0.30705338206665506
S 1.5763290997124197 -0.3164834049266314 -1.0772273874192975
C 2.6923972683249566 -0.23723405418526058 0.3650901603116126
C 3.821410318535137 0.7079414160309045 0.07011670173433873
O 3.7158455132053443 1.9026456930068356 0.4616782144366999
N 4.985113708924002 0.30245233674049077 -0.6850571994761149
C 6.005353390828839 1.3047425091223592 -1.009965055304552
C 5.157263309011899 -1.08766034813968 -1.1224132482480431
C -1.4196515434287125 -1.4778405482054289 1.5603299216554787
H -2.9529552316678966 -4.295857769810601 0.430393917773777
H -1.763434917621739 -3.424072712537324 -0.5904773570149234
H -1.2853395889763715 -4.064397014643628 1.0299514260350782
H -4.325063491102716 -2.2998428868913563 -0.04925505811297847
H -4.079234277283003 -0.8900888165085695 0.9859937241040417
H -3.753745719227253 -0.23407864602319436 -1.3558861120514754
H -2.637369970757851 -1.5849232309032542 -1.6445364531071418
H -1.2190297114391344 0.186872442570971 -1.4881110958360784
H -3.060881316101827 0.9076380776552894 1.8220857341961965
H -3.7004820327673165 3.1720080412751166 2.4447646850969655
H -2.0619667614140647 4.676816430758926 -1.229425757893056
H -1.406956426058208 2.4080541985681334 -1.8829550216812565
H -0.2024143943155415 0.18597241608261791 0.9964446536662016
H 0.8551292861697397 -2.148786971923121 0.361559087037125
H -0.12258300948704015 -2.0142325749300887 -1.1250614924417341
H 2.133022247594781 0.12588454091128823 1.2527224119126987
H 3.080841535262793 -1.2477510231133981 0.6048133497138987
H 6.417010123940661 1.737167970177062 -0.07354671414116444
H 6.846925595389607 0.867433005785853 -1.5869399276036866
H 5.552393246344874 2.115646705679087 -1.61872489857936
H 4.296274398126858 -1.3975907894540098 -1.7501414764113072
H 5.233401623765529 -1.7537299555936894 -0.23777357819171133
H 6.07962629034652 -1.2179429717462043 -1.7261109370300467
H -0.6607886831410851 -2.093673202846415 2.091068196466421
H -1.8073789757751604 -0.8087188753759833 2.3533639285253813
