56
069622
O 0.8387201861062135 -3.996292783132173 -0.10929768198175273
C 1.5956254563901544 -2.837330627628741 -0.35939182922332785
C 3.0035933697808312 -3.2380625207049265 -0.8437845550049561
O 3.823990785837283 -2.088225289720443 -1.0623910713464197
C 4.349845381529567 -1.2596192289574761 -0.05775431956094984
C 4.360283927375975 -1.6068109766073948 1.316520616106097
C 4.913750024977963 -0.7252884189001249 2.2734028646894204
C 5.465678868559351 0.5069677905547658 1.877452537183289
C 5.441801714500656 0.8241822804080426 0.5210342551229671
N 5.898369632967988 1.9449186616090304 -0.06274934500894444
C 5.645954671880841 1.8016948053919577 -1.3844838571430467
C 5.024601043498519 0.5827212105625691 -1.6402140147338538
C 4.904706654826278 -0.027736101841631656 -0.40912834137902543
C 0.8853179225476949 -1.9110161811614392 -1.3921762255380354
N -0.28360232488080017 -1.1708478028127842 -0.8652589198819584
C 0.0827614473188923 -0.02279319205549454 0.003116254345787286
C -1.1492769396359928 0.587708625904067 0.7106599114817777
C -2.4372155189840536 0.2764816123597757 -0.07020249491483016
C -3.632234918464448 0.9554407139457114 0.554936173498475
C -4.123656439423819 0.7635701795751781 1.8477685504194203
N -5.216509859719216 1.530965208049892 2.060764837496489
C -5.422444599801275 2.2076495652018533 0.9164281387692769
C -6.428681954303582 3.138411346534887 0.6596729861943195
C -6.444962622844401 3.7589290142002723 -0.6052519243867988
F -7.3995127545933945 4.679695956594103 -0.892644407277691
C -5.466746840831239 3.436406670685585 -1.5741021753064037
C -4.46853656847441 2.485034836290109 -1.2896186020753866
C -4.474742598954371 1.8881222161993056 -0.025760639944376596
C -2.656247058578502 -1.252205738222001 -0.17634882031127108
C -1.3270534362069182 -2.026714840441808 -0.2706740044516659
H 0.72747204625485 -4.4790099814384225 -0.9697580120475884
H 1.7153707620284184 -2.30778253685922 0.6047703844977802
H 2.915459930194612 -3.789786106710028 -1.806953967013157
H 3.487716510298383 -3.925367544158294 -0.11612553130044227
H 3.951259021512487 -2.548097835091993 1.6584841886759998
H 4.915115845800761 -1.0001593337464918 3.3216777389268564
H 5.890099133095644 1.188204099802047 2.6055449382343703
H 6.353231268536507 2.7619672655095115 0.40310709807350487
H 5.892526039073977 2.5469501847050893 -2.1283000748868237
H 4.698551849248491 0.20049948645209792 -2.599539886726397
H 1.6100852430173263 -1.170779949618482 -1.7989892942810581
H 0.5629021172770456 -2.516782706384841 -2.268642583249425
H 0.8271574267273947 -0.30822604852140745 0.7808201279288745
H 0.5514391531383939 0.7643995234572885 -0.6347441376039995
H -1.232553235692093 0.1605103542649492 1.737845946221142
H -1.013692265447626 1.6899666730816814 0.8113657812972451
H -2.2994526667526776 0.6729714296877731 -1.1009716666154972
H -3.701570645383196 0.10181825662001406 2.5925709262939503
H -5.785079540962797 1.5818259847772176 2.936516495522145
H -7.17088848329859 3.382303698198033 1.4123113959421822
H -5.479919874404557 3.928492676431525 -2.5396598126505494
H -3.7190342148008524 2.242872487891387 -2.0322909840450003
H -3.272333499137454 -1.4600802480183361 -1.0802467187387326
H -3.2175396891458297 -1.6360392620807078 0.7047787588795791
H -1.0187574056964421 -2.3514380154574046 0.7505819082732366
H -1.4911414778839434 -2.935189544673663 -0.894676915444823
