63
069767
C 7.506511472488312 -4.050130697469903 1.9452738694520404
C 6.879736904416188 -3.168007886110102 0.8547821708386565
C 7.986461217908448 -2.4796085370531347 0.04437362148195131
C 5.922330644448409 -2.1129918352054995 1.4531934543208098
C 4.5895742890923845 -2.719687493598969 1.915504621742289
N 3.701268572364503 -1.6675779794846346 2.402183611294098
C 3.5524683340763312 -1.2579997800906848 3.677002211668909
N 2.707374083767488 -0.21169234873245696 3.7901107344343696
C 2.31021663544677 0.0271833420801863 2.5215832547237556
C 1.4065615622714982 1.1628426519674668 2.130393442487948
C 0.25218281102862317 0.7228379832653474 1.1925971846557972
C -0.5349661924279582 -0.3809362543888676 1.8558317067764418
O -1.3187733101044745 -0.11950446876727937 2.809229204612481
O -0.3778083526872557 -1.6955635185901308 1.42810516459358
N -0.648872311216818 1.8612674842102432 0.8711745590645799
C 0.048250377077414836 2.9891048158445437 0.23856962869555753
C -0.9837636123079989 3.726846151927436 -0.5830830773487521
C -1.9092625159313525 2.6265232132370566 -1.0657667047662203
N -3.3022162381287976 3.0810184885679126 -1.1145360690267083
C -4.198440299177906 2.715860446098286 -2.1707880435576468
O -3.7857850229896175 2.042071782400249 -3.1545510600029183
O -5.5352417270060075 3.123112571130143 -2.1016598301274083
C -6.502866161505193 2.8059236593829757 -3.1007658890133403
C -6.88457095395304 1.3528867413694865 -3.023300432792543
C -6.484774975547161 0.45334954055433513 -4.026050191139864
C -6.836389860485574 -0.8970696086311325 -3.9403501932872
C -7.5801501025772815 -1.3601415073932583 -2.8518857018651254
C -7.971658797562805 -0.4735209883964649 -1.8449071125534695
C -7.625363200230938 0.8788093002960036 -1.9283738996685795
C -1.728977690249469 1.4846073986037671 -0.06341511165521205
C 2.93376872153117 -0.8530700642489457 1.6602308888712767
H 6.725689853655405 -4.616024296986547 2.494636732732668
H 8.194788999365562 -4.791960214222281 1.4850352721749391
H 8.082392093794297 -3.432376627047481 2.6681282621165874
H 6.309517317391347 -3.8217197823805265 0.1576352368898705
H 8.568314664884095 -1.7838884674208833 0.6873520952442221
H 7.546409921615023 -1.9062805977981907 -0.7990580117835893
H 8.678723253713605 -3.2357595031788966 -0.3841172477913858
H 6.4110279917866695 -1.5946047208246934 2.306893593202837
H 5.69477016597289 -1.3459279795886328 0.6793546343077425
H 4.1013759859539975 -3.2486023832698536 1.0670977797444967
H 4.760391730528451 -3.457516990614748 2.7272421282725596
H 4.071120286081942 -1.6994583330937483 4.51866992927633
H 0.9815761173434865 1.6301123705138165 3.044666175611918
H 2.0417222912759625 1.9210754801461385 1.6284187590960642
H 0.696626864596568 0.32388009974192755 0.2514060350830292
H -0.8859152192766082 -2.4510989446127702 1.8726323118932915
H 0.47112082914543585 3.66547637802317 1.011413460531633
H 0.86276283715531 2.6358927946530777 -0.43516773268177505
H -1.522222039569545 4.450507167499085 0.06955057456782641
H -0.5151605057868677 4.27157110936015 -1.4318355178272442
H -1.5623957144389202 2.2960990819734963 -2.0711940748963955
H -3.704076934423481 3.5796707687611886 -0.28740415284470816
H -7.408468246132454 3.4251505669506694 -2.9272274328361068
H -6.1106833799786875 3.0739516662454647 -4.107463370483571
H -5.901080278136566 0.7968801672578515 -4.871697717886187
H -6.532475141956233 -1.5847223926141074 -4.71825365225773
H -7.852262144058143 -2.4053167303745373 -2.7886065220957827
H -8.549024933019242 -0.8331620159818125 -1.0017739690411585
H -7.932962339172243 1.5569585147795886 -1.1422158391254438
H -2.66028432234352 1.3103142881783632 0.518243211661539
H -1.4958124754132534 0.5509493215451249 -0.6240186684954334
H 2.8476681676178037 -0.8868123983933675 0.5809517047293984
