51
070275
C -0.18603559449770665 -2.1158280295990317 3.068557389981524
N 0.21940227259053008 -0.8337548087389645 2.5015042217087147
C 1.5342321684435514 -0.5142238133339793 2.092602568729581
O 2.4958491068225466 -1.3241351542312514 2.185025777737736
C 1.6608968331967124 0.8712614121589862 1.5739033707559245
C 1.9824792840671837 0.8850148012863287 0.06605216742875646
N 3.2724829947223233 0.21453842454746128 -0.20763941848086492
C 3.269506328499821 -0.3888909104214945 -1.5609274912748785
C 4.670305252528792 -0.8726660069252851 -1.9998652993416797
C 5.631312501043012 -0.9734758669474256 -0.813389471635952
C 5.742121333891232 0.37238380460321846 -0.07887789293414597
C 4.410008388627215 1.1448477651634512 -0.06036774312256884
C 0.2658698584569938 1.4735222291914813 1.8659465593402875
C -0.6573569517689751 0.3093694743513247 2.3025594799502698
C -1.697630211644689 0.010888909701790269 1.2564556783004561
C -1.5308714638658394 -0.7747251607722317 0.11941514785563283
C -2.654579930605649 -0.7899770087490215 -0.714690371145602
C -3.7120114941738773 -0.019062370970369787 -0.23801275570030758
C -4.991387313723874 0.21805915373911608 -0.9438971931346594
C -4.970802964961795 0.43021237552363484 -2.335279351657501
C -6.15433442163342 0.6782827558569183 -3.0345776467439527
C -7.373496459741321 0.7100859069818133 -2.3565247939526617
C -7.413597030953792 0.48782506369324186 -0.978988196340714
C -6.233696806232785 0.2386358974037329 -0.26559878240278667
Cl -6.376582520211416 -0.12131757404259626 1.452824832725231
S -3.225501657194578 0.7096701561241099 1.2026946024401917
H 0.4042384934211853 -2.3237042861332435 3.985592216195235
H -1.2648079882579375 -2.0996683123417847 3.330837014910614
H -0.010764049942123401 -2.9220253448158156 2.3254565448528544
H 2.437369002404918 1.4196817845076724 2.149547368605269
H 1.9948356906616036 1.9351170234866717 -0.30598566883968437
H 1.1508970135374994 0.3693355295985272 -0.46642916424294456
H 2.58196248702683 -1.262975155826573 -1.5558220669089358
H 2.8887835508224042 0.3380419713679295 -2.3156695553884847
H 4.5905878111486365 -1.8634466333867656 -2.49736924007502
H 5.091739337458914 -0.1586573917774972 -2.7415950409244796
H 5.25778096773634 -1.7499924748221762 -0.10968810430320254
H 6.635164304673276 -1.2902357272094964 -1.168701009402359
H 6.516348044970078 1.0001805210610508 -0.5712556392584922
H 6.0796304344881875 0.18127520154649504 0.9623183254827884
H 4.345109126809123 1.7041083392348597 0.8969529493042634
H 4.402481108584692 1.8949132143366476 -0.8845332017953761
H 0.3549527240251258 2.195841239940009 2.7075884283758156
H -0.1444674347757703 2.0345860333000583 0.9955063843792165
H -1.1589209060825538 0.5618103058139124 3.2625884282342024
H -0.6228746911858011 -1.3168023284775807 -0.10745854892617109
H -2.689155753884629 -1.3471069263562852 -1.641491831926542
H -4.034508869710454 0.422410111288116 -2.8802897178713267
H -6.125408522220866 0.8498375747022151 -4.103163578658794
H -8.289867958731477 0.9014945218491593 -2.8999755541845045
H -8.367685424657395 0.499439783518936 -0.4658651267199727
