58
070329
C 6.85711904201351 1.8229621285793205 2.1389673732717096
C 5.36048290567514 1.996316869348261 1.908269799649611
O 5.0273963798224575 1.7362170257413772 0.5463979246950686
C 4.952234707749133 0.44828748193602996 0.0037852014583331568
O 5.15382068571093 -0.5659723697919137 0.7255554012135323
C 4.604564769870093 0.2792236997623837 -1.4473190653493877
C 3.080960441076257 0.13935218926563864 -1.7081688019606414
C 2.3714655539676697 1.4655801957189882 -1.3742362960397463
C 0.8948531629789068 1.370024314580541 -1.5803359233267682
O 0.2521580131141234 2.406560950806637 -1.9015729329047668
N 0.20284684595469646 0.13764296850045904 -1.312690725544853
C -1.2585540180401613 0.13526621775624487 -1.1611245577354907
C -1.6466281690684827 0.669925843979904 0.2196172720267045
C -3.1414174885067747 0.6493046666828801 0.39573729833081545
C -3.9124105938965124 1.7523034070333974 0.0064676884050887265
C -5.301661698605145 1.723242492579418 0.13791163662525494
C -5.945243598179425 0.5818471401214221 0.6530025020779059
O -7.339827043398337 0.5161266878682749 0.8009559087310314
C -8.237608758907037 1.5669258136082302 0.4582407873128056
C -5.180873342349072 -0.5332309915521711 1.0316989337519311
O -5.850421420345832 -1.6597227816431044 1.5357069381840511
C -5.208348028417658 -2.858730112879363 1.957330555228155
C -3.7790407018977987 -0.4954188809809164 0.8963329773759772
C 0.9111266753893407 -1.1456999380447965 -1.4046562532807378
C 2.394186976033826 -1.049102249035607 -0.9662421480327327
C 3.117307783606282 -2.3979601703978526 -1.2358923576563434
C 2.5014279120082 -3.5810197255410947 -0.4850722979925549
H 7.158864566873188 0.7711861687657401 1.9529839637341282
H 7.425162946340841 2.4909941615594486 1.457498701564838
H 7.105497555632571 2.0844931737395083 3.1891178343173974
H 5.082204466332427 3.0446049726729365 2.145751809265755
H 4.784785931521893 1.3257410913357313 2.5827765020949784
H 4.986824046309599 1.1630612026560567 -2.0030012569579076
H 5.154469146059365 -0.5879315293244526 -1.8683676160933569
H 2.964509098440041 -0.032429353625314614 -2.8028052736327864
H 2.5412037559562015 1.7391330992638008 -0.31169822045514295
H 2.7811581701543915 2.278626450548193 -2.0132078740328767
H -1.6598552757558738 -0.8963559171228953 -1.276846528209983
H -1.724087645072605 0.7539544676160851 -1.9595432087036
H -1.2669747231011146 1.707553203177892 0.3430390977182247
H -1.163312454253167 0.0480299065130644 1.0049698791329091
H -3.436680942854988 2.6359864146346124 -0.40109506388673216
H -5.866973419120372 2.5930237935702976 -0.16730095370415982
H -9.275187978420986 1.2438678496626943 0.6802730411767335
H -8.011510747422804 2.473463068438283 1.0584681873546486
H -8.161103354086574 1.7962350161041571 -0.6256037675176227
H -4.656907787142428 -3.315458159860339 1.108446696346187
H -5.977020766956447 -3.577108865135102 2.308741661507725
H -4.512243293716613 -2.644682822813624 2.7956854893326937
H -3.177500117583413 -1.3504677943873595 1.1748956433828448
H 0.8511893222048204 -1.507533861564251 -2.4543928709070406
H 0.393465125973662 -1.8840834595645688 -0.7559870033328643
H 2.4193590895672306 -0.8482283157295657 0.12830795688167776
H 3.1207967945101727 -2.618391503100986 -2.3256960465056595
H 4.171270064673046 -2.337945164064194 -0.9016589551592858
H 3.181074364362795 -4.456720758259101 -0.5536171534764097
H 2.3571456184009145 -3.329916067718548 0.5872381730258537
H 1.530461448815902 -3.8729533419907853 -0.9360396827751108
