43
070956
C -7.286587796665065 0.3634231526529985 0.656978509538909
C -6.048951059671261 1.2478757687230064 0.5360463934237936
C -4.8159642080431535 0.425296009761182 0.14428543408027142
C -3.571641916364833 1.3190970347232944 0.0351602859493371
C -2.340873903511369 0.5595083978104337 -0.484894000820421
C -1.804236042336077 -0.46509988779677824 0.533734425377126
C -0.4318034031356979 -1.051404224411873 0.1510309723343531
C -0.49751136414308644 -1.8500483805127443 -1.1582687388508774
O 0.5248399517788656 0.006898381792948267 0.04514575927211947
C 1.921892253476161 -0.14004053932482274 0.04461779544080864
C 2.701086657965295 0.9935823072433895 -0.20948236498725353
C 4.09626112602973 0.9125372244898627 -0.22236796048187102
C 4.74045460332409 -0.31123378482250397 0.02361074406869078
C 6.217818531910362 -0.394510372947912 0.009077905338835845
O 6.792576238598048 -1.496204182319651 0.23122544114975271
O 6.9780373870909616 0.7509452805537472 -0.25170573490786585
C 8.400199639508424 0.738764948288071 -0.28027534226673356
C 3.959095123787464 -1.4504278027000608 0.28467589457190534
C 2.5633863865060516 -1.3674866463162683 0.2972551835947972
H -7.502255766062963 -0.1331626474550622 -0.3130592869935114
H -7.133256224655781 -0.4101851231076689 1.43935099990151
H -8.161814617632373 0.9855175270714099 0.9397158414663457
H -5.869459703457734 1.7506731809211442 1.5114403490349082
H -6.239584427432827 2.028308360580874 -0.23266072953094888
H -4.647392743037464 -0.35722110316586053 0.9147372240692915
H -5.002159491033558 -0.07166016224034494 -0.8332775947387299
H -3.3436821612927394 1.7733277503950051 1.0244285736724617
H -3.786325202886681 2.14875255270403 -0.6738306711875612
H -1.54968348305688 1.3082738916817271 -0.7052982637812579
H -2.6005420367244 0.05148875202904951 -1.438371575051146
H -1.7031248412904925 0.025991067930703143 1.5264908777240187
H -2.530613429432881 -1.298455140156031 0.6456491360159305
H -0.14220996836484806 -1.7369165209317152 0.976656798041091
H -1.3220337730146077 -2.5931720895241774 -1.1176997694025006
H -0.6563415789487603 -1.1730722132493512 -2.023466223401444
H 0.4515194865746418 -2.399193104831947 -1.3241197378394252
H 2.2208258014602382 1.9448939361227937 -0.4012490286697847
H 4.668459242915269 1.8091258788859415 -0.4249771872464719
H 8.79761626486122 0.4227403256390384 0.7074808285561768
H 8.758679922754695 0.0440989031089029 -1.069202016796608
H 8.768931018046791 1.7603012344687798 -0.5060633789858182
H 4.425880886439637 -2.407559506964047 0.4815419557025661
H 2.000488619167593 -2.264368434799513 0.5099322776152311
