61
072855
C -5.049885638382823 -1.299663929354224 -3.2801296421548503
C -5.142074584279676 -0.14076020585108254 -2.2892086666527263
N -3.794589636452151 0.2057774873914404 -1.8334514754251292
C -3.5332140600428623 1.283961914616378 -1.1584667046338253
C -2.160751805109594 1.5840026020103057 -0.7058458467155145
C -1.0898538804157105 0.7166216011262141 -0.9859789185318205
C 0.20070419016448293 1.0200743755957682 -0.5417613151184347
C 0.4395556006580396 2.191797736049818 0.19922355180035287
O 1.7187855433770858 2.542121923474881 0.6568753078749682
C 2.7366455089055535 1.6377077088165373 0.9818941882936186
O 2.469197894576534 0.4273307868377666 1.2178949840135713
O 4.037994161422274 2.1257030319475625 1.1490609345863354
C 5.19726038344765 1.3376053931382537 1.2103323088872455
C 5.303301759521385 0.10306560027908393 0.5452497467222445
C 6.482586375419406 -0.6433213600588208 0.6261758763834193
C 7.5813077187137 -0.1670394395037304 1.3637392226341458
C 8.833729305436313 -0.9615830440729556 1.4516226514275707
C 10.090083612299056 -0.3289306507869832 1.3871469930827354
C 11.266644090570182 -1.0799312767861118 1.4704368982775513
C 11.203897719328738 -2.4671072763966904 1.6193311446561913
C 9.964087507493767 -3.106699940200723 1.6847443002752478
C 8.784241210581067 -2.3609506842861534 1.6012867634082772
C 7.475872223525257 1.0774844319634898 2.010157177071425
C 6.296172074500519 1.82242689426429 1.9267353196981232
C -0.6236684078477267 3.063648012420459 0.4584746038803204
C -1.9149551473408206 2.761097507866023 0.016726869070834312
C -6.049719975100461 -0.52536070969423 -1.121120132087505
C -5.4794030559138545 -1.1677205873413474 -0.001712035477430573
C -6.254367449348528 -1.5198910501524 1.1004253200661376
C -7.621086779247164 -1.2646634115539186 1.1081371085803482
C -8.236131350970226 -0.6782228485191772 -0.004564487380904981
C -9.623251402869174 -0.461322121172446 0.00483642672860302
C -10.25738461373525 0.08933423240405261 -1.1074568629804562
C -9.517623689745335 0.4195394182328203 -2.240738202058405
C -8.135842450545667 0.21568670526662448 -2.2671768842488453
C -7.461717234702812 -0.31919866475248587 -1.144413068542605
H -6.05831375180945 -1.5591287524048807 -3.6669666689711042
H -4.408528313767398 -1.0113576717581287 -4.140037202655584
H -4.610006419135474 -2.1952592539247804 -2.7906780854854163
H -5.538095412230218 0.7463088534242612 -2.824870533962266
H -4.334152859617986 1.9732574570037729 -0.9129378398985205
H -1.2464125073213008 -0.1921206318995319 -1.5537166568651526
H 1.010712913443552 0.3531441478346417 -0.8035727812202176
H 4.4915499828413665 -0.27221926101930644 -0.062413113556542214
H 6.543594113076423 -1.582192918878733 0.09039873481844293
H 10.163139438375856 0.7430489012902856 1.2540001278503095
H 12.228093067015799 -0.5857716782182149 1.416370092860846
H 12.115790044947698 -3.04646197571092 1.6841743763315187
H 9.916674049883074 -4.181374307090241 1.8041712092394968
H 7.834528494258775 -2.876121691886068 1.6718499921422172
H 8.299186425878986 1.4679093158105077 2.5948408910911342
H 6.231219143019986 2.777397823090273 2.432578046387986
H -0.44951285682368786 3.9765303804530725 1.0139165139608026
H -2.7226709234181516 3.447815350514466 0.23911806228933075
H -4.421127730952757 -1.3942475602827835 0.0273837249574224
H -5.790675876543156 -1.995378717580931 1.9552612033279202
H -8.20267216752907 -1.5447673346482433 1.9786139107855805
H -10.218723195716377 -0.7258353798225977 0.8709211373575151
H -11.327722341006252 0.24995639177304543 -1.0952382418626732
H -10.018473422365561 0.8312025328372898 -3.10773071386733
H -7.623945612395858 0.4630458178754561 -3.183919640466527
