31
073033
H 1.37271793418967 -0.9839621719400595 -1.7480801801559498
C 2.039413935729971 -0.8678860978166866 -0.8643015237305572
N 2.7857836245139818 -2.1196990492902685 -0.7005127734255054
C 2.9747686006337375 0.32314588975398817 -1.1456978020852866
O 3.9016471486270463 0.4820318555522634 -0.0895699015007514
C 4.763801865003519 1.559281794807948 -0.3785735969805455
C 1.1812285791185986 -0.6117616179777478 0.34823854086312267
O 1.697204070842854 -0.6405940043099511 1.5003667159113727
N -0.2117263116030682 -0.30522525628815206 0.19310734625010248
C -1.0791186646088202 -0.08821391050113804 1.3513974343111523
C -2.519737248710065 0.0007650094858286327 0.9252863780124133
C -3.093455155548707 1.2439592681840073 0.6160154117360799
C -4.425587309495092 1.317222413236932 0.19313396434895147
C -5.187628958827593 0.15144111954126713 0.06352282195080046
C -4.6167511863069475 -1.0905899913784087 0.3518996066343293
C -3.285685493015518 -1.167568440425654 0.7755702311337047
H 3.3112388550381313 -2.3111004378615725 -1.5844502150580182
H 3.493991726636936 -2.0139472008506223 0.06100669680330085
H 3.503779715852949 0.1295301489735502 -2.107099827031694
H 2.3528631210276902 1.2417343418620286 -1.2640205316960342
H 4.199258527342767 2.514054012329253 -0.47758695024484477
H 5.476197288102052 1.6776291211066594 0.4653179790533882
H 5.3588785220020965 1.3624587683012248 -1.298710962674214
H -0.6099773191657434 -0.23399699064530166 -0.7714055854397748
H -0.7714203965602485 0.8450844950694845 1.874040076086185
H -0.960799270695413 -0.9305738270940879 2.0676767798022726
H -2.5121053658909323 2.1533045531225645 0.7067677341416556
H -4.865111356771966 2.2791994591277165 -0.036363863906076724
H -6.2179180838009795 0.2132291065044947 -0.26235830548620825
H -5.203780520040311 -1.9949651464124518 0.24571109589007095
H -2.851970873620595 -2.1339872141671083 0.989673206486558
