82
073449
C -8.571243198925137 -1.2182291570202448 -3.3460033747395426
C -7.330616932931365 -0.43651486107031356 -3.774491473763724
C -6.066706748061596 -0.8346044402975746 -2.9902455824222143
C -6.131698241251849 -0.5752290512974121 -1.4736925437147972
C -6.213516316644461 0.9217144853107917 -1.1271250875599612
C -6.268795407501832 1.1888411994442771 0.3881461887011953
C -5.016196225795455 0.7549653164167243 1.173023779012443
C -3.719728395207008 1.407049177254086 0.6583402296907462
C -2.5575182066689943 1.3080994531994639 1.6633383681770297
C -2.1882005351616334 -0.12670095348241697 2.0871617094970643
C -1.7269190241165666 -1.027024280715315 0.9311964451207029
C -0.46409214851795966 -0.5206734577844909 0.30474071986493084
O -0.4725380196591135 -0.18023996309697154 -0.9080143485234543
O 0.7183054771273517 -0.5354227812575748 1.069095885614986
C 1.9645703851232286 0.18056022639027494 0.8979824372386183
C 3.0936716097679438 -0.9384728684242477 0.8902646715678475
C 2.911470995889834 -2.18512753367822 -0.05379497647020154
N 1.8382738515955896 -2.032177518161738 -1.0710238813219977
C 2.3913652945161914 -1.997912511596203 -2.4376633081207064
C 0.8711975303727668 -3.143394899108273 -0.9804422477743073
C 4.544549221440188 -0.46263816367768146 0.879456650760374
C 5.286140596696636 -0.43794902254793916 2.0785259560946905
C 6.645748174029744 -0.11291708023455788 2.0736657284815725
C 7.299658975750943 0.18129974253484415 0.8644817109751447
O 8.665595831757619 0.4947440268700278 0.8015729200308057
C 9.546097643108235 0.46371521830363777 1.9207888221281992
C 6.570461786888727 0.15540250278043222 -0.3272231323951631
C 5.214017867123257 -0.178330347974456 -0.3244694671442272
C 2.0568050176124153 1.0616025059298755 2.1882781217021763
C 3.0460152882897336 2.235587251883647 2.1418456020772156
C 2.7940202571051365 3.1207317627065105 0.9298192406439892
C 2.9282617390963677 2.3021402280074565 -0.34765412078896774
C 1.944145193849058 1.1205846869216947 -0.36132265619574366
H -8.90608542976601 -0.9013181043581362 -2.3366498523386947
H -8.361161627256129 -2.3080811364174334 -3.342400556399002
H -9.396630391698343 -1.0208026744759036 -4.0604089781383035
H -7.14568119779975 -0.6428148775156046 -4.852524982299965
H -7.526417290019617 0.6533064386750432 -3.687137617348501
H -5.87147510804385 -1.916505144112649 -3.156504133821224
H -5.201068655783464 -0.2823885021392036 -3.4132675538367105
H -5.205484737976853 -1.0028411651651037 -1.0343146004018369
H -6.9885385065038035 -1.118678277339115 -1.0256343804091572
H -7.140388070909974 1.3493739445828046 -1.5649790842538198
H -5.3562534604969345 1.4625286690132615 -1.579115821402793
H -7.154126242261299 0.66711049115667 0.8150417163845783
H -6.427629014505494 2.2784935933155226 0.5457783145988251
H -4.92290918460951 -0.35103805902023005 1.145855645804841
H -5.172603192383086 1.0438392927929392 2.2365027324637565
H -3.417855634788841 0.9467612439062069 -0.3069701485854567
H -3.9058255668687694 2.4857884383461593 0.4639195407599861
H -2.82700495386129 1.8831956000285044 2.5761687122319383
H -1.66214614571216 1.8006148978791818 1.2244174603838436
H -1.3747515275398676 -0.07003716479784475 2.842313633050762
H -3.0528722160255226 -0.6030277120705169 2.595883128402114
H -2.5288729255078444 -1.1348927658584473 0.17133265495201483
H -1.5300917663108724 -2.043108376673315 1.3314558440949125
H 2.9644778252631174 -1.4022801395015834 1.8954770476157026
H 2.7167846021628272 -3.0718152101780656 0.5965402018180821
H 3.8799984462338544 -2.4678764019839936 -0.5299588752461217
H 1.5764695619575866 -1.8347906585618168 -3.1783390211669102
H 2.919400108857384 -2.9482888022871836 -2.6838493538723998
H 3.1065192459663677 -1.1604249839701528 -2.5525724601651247
H 0.02846406909015283 -2.9757652050272374 -1.6862522226491021
H 1.3538856842157276 -4.118481334212091 -1.2135082018328271
H 0.4394458025010449 -3.1961427206334365 0.040818801861548466
H 4.8135775534154845 -0.6737614891792844 3.0241557559562313
H 7.1797233280752195 -0.10268441421018498 3.012835679604436
H 10.568412242244268 0.7365565814090639 1.5872772961465516
H 9.569612094622007 -0.5597493500638518 2.35491221299348
H 9.215483027480794 1.1954951765932404 2.688883227307801
H 7.0639716761865 0.37937475984337077 -1.2645875795703045
H 4.688724459881714 -0.20414369359106302 -1.2671727813265359
H 1.0509413727896517 1.496821502326435 2.385639003867733
H 2.2884897025689317 0.43235628341400495 3.074566244763345
H 4.093033987760344 1.8825557214480886 2.1334572367816635
H 2.9195542018784217 2.8468894263214213 3.061093413126019
H 3.5399488159609964 3.9475397252626703 0.917163768527675
H 1.7778533900210978 3.572519563046267 0.9907562991643004
H 3.973224910078815 1.9783884101092541 -0.4671562958423464
H 2.704851683580183 2.9614894662915803 -1.2147157550306154
H 2.0899086592136054 0.5462631333287251 -1.2930762605722477
H 0.950513057925182 1.6109971117249244 -0.4197080425968673
