39
074150
C 0.4777115414879272 -1.4710870544718972 1.3506161704883035
C 0.48802337932682854 -0.13289342448507827 0.5877184727959079
C 1.8422900425557525 0.5896764651222443 0.774068138135392
C 2.0261999138591302 1.119823220159323 2.1738740858765326
N 3.1047917504611076 1.7367139157055083 2.558301271894273
N 4.214864056825473 1.9809204019730968 1.7297627358993493
C 5.359783711120813 2.6599240155297146 2.2501173214940318
N 6.486094886713707 2.912430022442676 1.4113904347209782
O 5.379259047389296 3.038272146817422 3.451964083198316
C 0.21807562159868138 -0.3396876244038611 -0.9247973574718301
C -1.1190782480887997 -1.0239067922191472 -1.270317423782687
C -2.3451537993198466 -0.22142738495231287 -0.7851390185316486
C -3.7213293436015 -0.736392637486721 -1.28794604993047
C -3.8465987326199036 -0.5803443518455003 -2.819108985774148
C -3.939329341611997 -2.210887577504963 -0.8863462807000947
O -4.705151918580425 0.05902530878943909 -0.6665936636389556
H 0.7867663625405301 -1.3294272538808272 2.406867645675469
H 1.170391124151815 -2.198185502636478 0.8752677672604834
H -0.5449792527882028 -1.9007874976587946 1.369738962820272
H -0.30696620962566545 0.5230584793780069 1.0039911619613178
H 1.8982211173912464 1.4542369194297582 0.07707355984652298
H 2.6709863851316267 -0.11078756211575275 0.5299239009829899
H 1.2297287996883532 0.9956945923985331 2.896447415176617
H 4.224631591510332 1.6805413828469493 0.7297388734810387
H 6.485012873696631 2.605047256919624 0.4136892485107382
H 7.324113844667864 3.408270809326002 1.7884471174245031
H 1.0407782342717689 -0.9495944870949453 -1.3595205806871065
H 0.24235873952105538 0.6471436369292225 -1.437859456759616
H -1.1333282492283228 -2.0498302192781392 -0.8495945083717368
H -1.1511214856907042 -1.1248667029431916 -2.3738778142959056
H -2.227874883577521 0.8413740535982249 -1.0927863257860675
H -2.3622211985626125 -0.23787850502286773 0.32589727661003626
H -3.164018302945835 -1.2693609190844692 -3.357572232716096
H -3.6193761493037835 0.4639161507428628 -3.122540419996928
H -4.880787814322003 -0.8180248935174136 -3.1484985764764484
H -3.235413328047746 -2.8823368640628217 -1.4213444744726111
H -4.970489610857748 -2.5349875406819082 -1.1436028328128325
H -3.7978945312337826 -2.3382445189150283 0.2082815307666001
H -5.598970623903534 -0.2551294638464918 -0.9657311728144897
