46
074660
C -3.399532671344537 -0.9324103111931504 -2.206326567544564
C -3.570171597045346 -1.3381737549294608 -0.7320588138144759
C -3.326108479728863 -2.847010412344238 -0.5726826525048827
C -2.6994653041518593 -0.506608469086085 0.2609711479993419
C -3.225024998389509 0.9367436768670334 0.4119906995142226
C -2.4253877085369653 1.700840773294905 1.4738862418160052
C -0.9218184416177422 1.7168520367577145 1.1346322225355552
C -0.14546499627060505 2.471594081710849 2.222387558305621
C -0.38363294212088134 0.2772598190478142 0.9688210690950544
O 0.989439479389143 0.33134041337615555 0.5773096370075087
C 1.8666433138642287 -0.756572231324861 0.6639580121991526
O 1.4804056927277933 -1.84535950109376 1.1719809177086502
C 3.272117182400034 -0.6086029282386088 0.22258075435050367
C 4.273674216559216 -1.2731481762381016 0.9549659619742874
C 5.6228684929848916 -1.0799195738510547 0.6565202607736368
C 5.9939188785740924 -0.21978181975038882 -0.37435169355517756
C 5.016903542513229 0.4326922642268917 -1.1270434030248193
C 3.650429121758909 0.23435298196823895 -0.8589414462303876
C 2.6676311224790297 0.8657626764246811 -1.768409388305274
O 1.5972044411542476 0.2720091897145847 -2.068318685064739
O 2.950124550827292 2.100053920012532 -2.3471669500792576
C -1.1962414831285149 -0.482702391061058 -0.09743767347561495
H -2.3820636677636084 -1.1793128645765816 -2.5755776445394805
H -4.133540993314027 -1.481969859350999 -2.8336229648021827
H -3.586939452306285 0.15075128768430857 -2.3479592455140605
H -4.637570916908884 -1.1666186662107265 -0.4671419915387008
H -3.458073807849687 -3.1525361503011093 0.4870127702396107
H -4.058560875717658 -3.416211270040568 -1.1842574656682836
H -2.304860277618484 -3.1269541790178983 -0.905068557097673
H -2.7987463793667944 -0.987769215273575 1.2610794719787473
H -4.2938054551653595 0.9187532459613356 0.7174212831150231
H -3.15200520897192 1.4843521498816523 -0.5515863476835867
H -2.587751020242317 1.2281171946431293 2.4682106725918223
H -2.8075673706896307 2.743798481912136 1.5256594312589462
H -0.7816513098675232 2.264528518077405 0.17506554992646
H 0.9288762909343846 2.5459227259486 1.9507750602859364
H -0.5420887689823162 3.5037831924051033 2.329157199086168
H -0.2334256712445115 1.9510764633949367 3.2002364866133495
H -0.4698648887793218 -0.25318529660857303 1.9449482152238504
H 4.012896234869984 -1.9202427537879383 1.7837384986651652
H 6.38298903846734 -1.5883630987143342 1.2356139246637425
H 7.041585243239206 -0.06729416176397668 -0.5997223633137905
H 5.331026618671317 1.071002283597385 -1.9440228851735064
H 2.296336823990555 2.5363807894116897 -2.9862247722228483
H -1.0432125079889314 0.012697935997299119 -1.080273564286045
H -0.8104930902928041 -1.5199190175593331 -0.17072797148900948
