25
075297
C 2.074854526097238 -2.058799321116939 -0.3177445173072858
C 1.1716188808023913 -0.9403850951132444 0.21418010018793376
C 1.5932307226519575 0.41709338676003904 -0.37186363782996684
C 0.6442112257639798 1.5166766468261677 0.025411454971885038
N 1.140506458252628 2.7093320278723825 0.20127060761991133
O 0.4117361322836721 3.8688341960182804 0.3835899390491499
C -0.8466750136617721 1.2538793388823586 -0.04814975640131207
C -1.209228907712666 -0.14630124153283866 0.48812374349848925
C -2.6834724365161726 -0.4626716731171292 0.21019950498279447
C -0.3021603608670051 -1.2334707063896841 -0.11363981114645164
H 3.1350849778424648 -1.8486532313718191 -0.0609745180501449
H 1.7934518642153554 -3.029427242111413 0.14355553811572078
H 1.9834258036902024 -2.1468475299768857 -1.4218152621259237
H 1.2933799987437855 -0.9033706060696564 1.3205047119626498
H 2.620969566865235 0.6605134345654553 -0.02146909627248512
H 1.6146174342325117 0.36128172622943666 -1.4823665650987186
H -0.590648849834406 3.919464209146683 0.2653042952966686
H -1.1678831583403222 1.3562375461104252 -1.107560405196383
H -1.4134245805401533 1.98174469049693 0.5655072597946178
H -1.0685352792518656 -0.1449678910997979 1.5930243524991017
H -2.952764250319523 -1.4477446563596106 0.6475582747422524
H -2.8798382376947798 -0.49036101169518503 -0.8832603655229337
H -3.3345062670936954 0.30988182602731323 0.6722758740898797
H -0.44540626019247137 -1.2807748429344636 -1.2167405961648987
H -0.5825439894165912 -2.2211639800468053 0.31507887430544956
