44
075419
C -2.462044583106626 -2.7744591464790838 -0.19250015345409122
C -1.7083440518299577 -1.5310240846695606 0.32679851479591665
C -2.336962609702968 -1.0931826206861137 1.6702581544602464
C -0.2201503575475558 -1.8908252018924274 0.5767312101507063
O 0.5314867568554474 -1.7197725303664866 -0.6063468929268775
C 0.5889524258695846 -0.34134219274601113 -0.9729488427257895
C 1.7969051850692774 0.30263326565180426 -0.35310634727567375
C 3.031115226409252 -0.1353755179162679 -0.6322833837103146
C 4.266664330926052 0.4401865439774414 -0.046586463252520645
C 5.443389184147908 -0.3286560133357247 -0.07153941153377708
C 6.633554009349869 0.17545416322339832 0.4615350790204664
C 6.665235483092418 1.456107251849018 1.0166279459286616
C 5.50808714421205 2.23739898887166 1.034260153345678
C 4.314254670589352 1.738429402733773 0.5032169305021745
O -0.574406562108044 0.4014071841214406 -0.6171076722252155
C -1.7310721211434692 -0.4006027634671452 -0.7572577993428968
C -2.9744730529090617 0.4709195437025639 -0.7186922092132443
C -4.11537532262118 0.10080465647042307 -1.4539903801087166
C -5.274031916059696 0.8815589954545132 -1.4051903381549762
C -5.308185110605757 2.03679425725785 -0.6210708142314129
C -4.18355208068003 2.4136669661194805 0.11629204537938152
C -3.0221517004744083 1.6368133942155147 0.07086646019665242
H -2.4333657447885293 -3.5934654580016483 0.5583999394142956
H -3.5269244585714907 -2.5330257941296357 -0.3928067403515422
H -2.001566305350912 -3.150990014241354 -1.1312863054692701
H -1.8546620155448115 -0.16555658569077672 2.0457403660017985
H -2.2028433009884343 -1.8865518692140737 2.4372137835146366
H -3.4273759602931766 -0.9095871332205148 1.5620302799240968
H -0.11961556487982218 -2.9448712257694005 0.9143207125952623
H 0.2197423738725263 -1.2702339710146888 1.3926814647063521
H 0.7069244888167945 -0.2835429572024555 -2.0775598198551553
H 1.6386961732534866 1.1158002869710428 0.3419906161180163
H 3.137081616691874 -0.988180867162503 -1.2939992305685164
H 5.439420354515076 -1.3248557457838117 -0.4972714293360098
H 7.532217354100639 -0.42756095812715017 0.44312640848928564
H 7.587802669536812 1.845510079427943 1.4273913468841015
H 5.53739830797323 3.2347616696191603 1.4538928525310844
H 3.4460977292627804 2.3821040984329622 0.5068196288078577
H -1.7098788881076794 -0.8648594828732007 -1.7744024254473079
H -4.107942165150479 -0.7911122084350939 -2.067829190006073
H -6.146554508407562 0.5898581692848218 -1.9753565741951977
H -6.20654311954949 2.639298351789107 -0.5838995101593125
H -4.2122440353001975 3.3074566138762496 0.7260422904052232
H -2.164759948823102 1.9426704593749626 0.6567957503719974
