65
075447
C -5.651849795960877 3.763267557919553 -2.384305766032562
C -4.2930826153387525 3.282684078779612 -1.870929545443465
C -4.282625706684664 1.780505230384232 -1.4734086153757073
C -5.187657246953606 1.5041709903280764 -0.24203500302711536
O -6.539925139755599 1.460590728748351 -0.61101405489424
C -2.815112970877619 1.2664283441443178 -1.2689804447174604
C -2.7551730667312846 -0.28176905361719357 -1.4203299136827512
C -1.3332245015647595 -0.8567274688269426 -1.4674554763233596
O -0.8680285709668175 -1.0764538682375717 -0.15158153807128108
C 0.43741062129498176 -1.6202422537229553 -0.1707889583444198
C 0.3890023339155652 -3.1206092769315497 -0.2694587340178386
C 0.782524712500313 -3.771904244406988 -1.450074421154563
C 0.7342520499524883 -5.167042349989847 -1.5324503962149798
C 0.28803638760090955 -5.918795174845176 -0.4410478502091667
C -0.11408822886195505 -5.276513891960339 0.733369428860746
C -0.06682153306459859 -3.881718355307475 0.8198308565674469
C -2.200807995953847 1.7620273433400007 0.0749461477398699
C -0.7061573016338291 1.9421025082265473 0.02100925102449581
O -0.18180798063843998 2.5478108637358265 -0.9533853578772737
N 0.11188555885783391 1.5018467069857027 1.1125105714071615
C 1.568305086617588 1.6332357271492652 1.0735438740898677
C 2.1976950416731755 1.126547587932475 2.3739109099726496
C 3.6936918797970044 1.1842383261396474 2.2924442079736567
C 4.498698824791471 2.2722228048709554 2.6163563402877665
N 5.795697379631781 1.9956875917656252 2.348833848192003
C 5.814088868434471 0.7482418968738811 1.8467694279726288
C 6.9258496504608855 0.030778670655293962 1.4067044213050828
C 6.714052853075905 -1.2631922458281637 0.8964388612055213
C 5.410633650698325 -1.8036903883319757 0.8346149651516536
C 4.307067250177658 -1.0562761405132277 1.2843318736024405
C 4.548688150027737 0.22188362838412792 1.790125364524924
H -5.5459378707312235 4.785017755085201 -2.806239804167186
H -6.38839154100937 3.814163635384331 -1.5556358063198261
H -6.031121241069025 3.0897861236644846 -3.182419478702552
H -3.993813603511658 3.9222110945247257 -1.013884495657868
H -3.555391505928875 3.4522792580292805 -2.6855582484083853
H -4.704887257960137 1.2237934749133164 -2.340320038758197
H -4.917828933093425 0.5478813305590551 0.2550616654979418
H -5.054097874105533 2.303002895329814 0.5179630287192801
H -6.683728222468713 0.5883237514170909 -1.0629456666621901
H -2.218791232301253 1.6791696974359174 -2.1127624672392273
H -3.32149101424297 -0.7855740372313489 -0.6093759753081264
H -3.2498333587554176 -0.5593233240751194 -2.3770679882486863
H -0.6669085717056621 -0.16045156941177866 -2.024809232410712
H -1.3736737382894444 -1.8230456284265597 -2.019138409826315
H 0.9244563385347739 -1.3580517603164433 0.7899194341581324
H 1.084473030677604 -1.1753575933250315 -0.9629109834572319
H 1.127511838711362 -3.201074855280324 -2.3035892647415195
H 1.043655154758717 -5.665669337198315 -2.4417848197897105
H 0.2527129947755401 -6.998393013879414 -0.5059689319183615
H -0.4618715137583477 -5.860201347753381 1.5764709881882175
H -0.3805847063019251 -3.3942174455611407 1.7348360497290924
H -2.4716236562241765 1.057127319609888 0.8904094891941167
H -2.6200338804164036 2.747624470335202 0.3593975648046728
H -0.34908777929735957 1.0641764933504398 1.942237465180984
H 1.9630752960752471 1.0480987211485653 0.21435220909428385
H 1.836656003525918 2.7025293972930258 0.9294455514882262
H 1.8776870687351783 0.0809111373681591 2.5703995363400916
H 1.8510327360904069 1.75525931488203 3.223064410999472
H 4.151730986581464 3.217112484619712 3.0148007574250886
H 6.612076832189577 2.6307140144211663 2.492273719124084
H 7.920491892440827 0.454841378789415 1.4532984489376226
H 7.555229801423576 -1.8470872205461242 0.546598725281104
H 5.2590771526685085 -2.7988445054907882 0.4370288447730334
H 3.308012729460777 -1.466067983509141 1.2383594481889373
