51
075907
C -0.06646675446550467 0.8538044632354977 2.371662800408088
C 0.5075902688710618 1.3656961494643658 1.0723159781924925
C 0.042764208083297145 1.0053534645827458 -0.15608532798225438
C -0.9664457295780396 -0.08332760835473783 -0.5532253391803835
C -2.2496319070464432 -0.26301673977091666 0.2743769913970352
C -3.2564298784313745 0.9259920322832568 0.19556324941402878
C -3.972801733444657 1.0828221620862322 -1.1586439168936862
C -4.297703249148101 0.8294533012435933 1.320082085657249
C -2.7825884221919663 -1.623867186439355 -0.1807662734066356
C -1.5366873151846645 -2.489895031481544 -0.3633103586436856
C -0.39647900115887336 -1.519513823311727 -0.7308661973648319
C 0.8643498692296167 -1.7870905362717615 0.05109521913526916
C 1.8973030986123565 -1.9425417133126148 -0.7737503861639325
C 3.330823882965114 -1.876181381700654 -0.34657362105241274
C 3.748082162195546 -0.4027477251276804 -0.416375364204805
C 4.093004366598689 0.2067775249383491 -1.78140723698828
O 4.606946305930365 0.05817434891564783 0.6017268685616796
C 3.2445226605239657 0.42355212756271254 0.722900278730092
C 2.950350286404477 1.9126288982089268 0.4612543567553113
C 1.6534435086227983 2.3725925774181698 1.1602150055483649
O 1.5035611887956575 -1.962636681307225 -2.100810348525776
C 0.1397383487566415 -1.7454935109610348 -2.1152943286391293
O -0.5453392660492683 -1.7272804895426714 -3.172254055729561
H -0.0633487263008734 -0.250343297227907 2.4102367414491748
H -1.0920813282401052 1.2532268272469325 2.509907915375899
H 0.5281294343047437 1.194613858330092 3.2438572960046175
H 0.5033257606115676 1.4954542547908165 -1.0103802422321075
H -1.3094364148804327 0.23235952159282605 -1.5611256206854252
H -1.985978702061702 -0.4178543050520773 1.3329451192092452
H -2.6800582562180755 1.860938137209136 0.37257184030340323
H -4.676534244941501 0.2445648720274559 -1.342758024105011
H -4.564069582485585 2.023415179247367 -1.158529016090536
H -3.2550415349398674 1.1509625699941743 -1.9989818737786755
H -4.964998955347919 1.7176683510900779 1.3037428955820018
H -3.7960683952763006 0.7998579382819778 2.310828839238999
H -4.918283952313601 -0.08445688766294313 1.203814999484032
H -3.300377796287064 -1.5485108577983144 -1.1597743072293898
H -3.47406961711576 -2.0668143909826195 0.5686122621547993
H -1.7100332022315605 -3.265710896022844 -1.141611062629611
H -1.3194823426983304 -3.00807260118841 0.5976973281762793
H 0.958506567021277 -1.7334771523388046 1.1246203596508297
H 3.4512879962578684 -2.286791083939963 0.6805934170153918
H 3.9547285965446974 -2.4828181176245563 -1.036184708054951
H 3.15920060387489 0.41350916862923964 -2.344968205100389
H 4.677798408149069 1.1455877833425334 -1.6759643345122803
H 4.707557789792215 -0.5097003053133607 -2.3652095546725396
H 2.805462096281307 -0.07399538724412041 1.6145173840711675
H 2.8320204629680807 2.124016073773546 -0.6200959020190638
H 3.798812331344641 2.527881848489443 0.8309892030357608
H 1.3216931263667941 3.3330014543363937 0.7090332593927824
H 1.89943297893082 2.598232821656332 2.2197839119413616
