41
076000
C -1.9740207878011011 -2.7108513889466606 2.001115178734893
Si -2.101167338677147 -0.9879692879484308 1.2930481888117897
C -2.9089731264936454 -1.1002011896063064 -0.3890096407218847
C -3.1671756042007466 0.02944710475843871 2.4436609519264407
C -0.36097194196647536 -0.27067540270159013 1.1866428523855996
C -0.16803895410911188 0.7730596107774279 0.07095208717805532
C -0.9085969252607243 2.096021197193849 0.35993955232978503
C -0.6046899916613558 3.175002869701927 -0.6957459739590565
C 0.883996187430543 3.5519850672651985 -0.7155622419641486
N 1.6919069599262453 2.3953963794481234 -1.0197669918767378
S 1.5768995652182174 1.1163077811366156 -0.1403340525896954
O 2.2170521210030416 1.3843997142583637 1.1943482629129278
C 2.3720626218259606 -0.23602419644603106 -0.9389431760320277
C 3.1406597536464425 -1.1471685210799998 -0.19945594589210122
C 3.749711229475111 -2.2320793331610393 -0.8380219515878183
C 3.5901420159176203 -2.414256898036015 -2.214817029451756
C 2.8186745400600355 -1.5130706830048326 -2.9542690097451203
C 2.2083208594066446 -0.42750914861082895 -2.3183588387356924
H -1.5029909018488707 -2.663835070506113 3.004342604831643
H -2.9886278152461228 -3.1506801104014994 2.0886281715776747
H -1.3543354691600926 -3.34095959818948 1.3306008142566008
H -2.2591348563476115 -1.684586253507668 -1.0722273782813982
H -3.0619326012775425 -0.08243436042069696 -0.801901396162395
H -3.891129277106294 -1.6063462137244502 -0.29151640350801084
H -4.138378420044522 -0.4854647759751775 2.592126260308639
H -3.352645933731765 1.0333288147161321 2.01451853317519
H -2.6547596840591114 0.13527302783404327 3.42172613600407
H 0.316534124664887 -1.129505956398276 0.9954748484415382
H -0.0906758981231635 0.15933591740202943 2.174393693621005
H -0.5378027199692988 0.35526361726761985 -0.8900384908088012
H -0.6325022409794488 2.477075578376085 1.3678269363310842
H -2.0021899168828257 1.9165471538635777 0.34973176620093677
H -1.2018023122181496 4.083524715685139 -0.46552348530224374
H -0.9107923508682261 2.8116057892402013 -1.701330135751035
H 1.0586146484288175 4.327955756096738 -1.4899833127323305
H 1.1836046391318087 3.97086253796768 0.26996439330929245
H 3.26428525671076 -1.0231283506263402 0.8685993201101205
H 4.342842439412387 -2.933160663930098 -0.2652047102642972
H 4.0610974293426905 -3.254930214828237 -2.70765286686177
H 2.6913007962472073 -1.6573119095089766 -4.019345777900945
H 1.6056298801849356 0.25975689456955625 -2.8986317423180186
