37
076053
C 2.592809112351681 2.2753308811184882 -0.2367514415939264
C 3.3450542009030086 0.981935756031991 -0.05481106792055908
C 4.717176952364236 1.039291090770324 0.24968123822540866
C 5.452140430333326 -0.12901672937685996 0.4479847186463318
C 4.829064667233172 -1.3702728553530532 0.3501650184198258
C 3.471250912797216 -1.4503382482824019 0.03933357914911109
C 2.7119315125104353 -0.2849694771614165 -0.19421759154525506
C 1.2271260584012211 -0.4143827109345933 -0.5099566995124585
O 1.0043676552113687 -1.4217103549689876 -1.4704079356837416
C 0.4181168399316079 -0.6512164763254598 0.7825060507993541
C -1.0582291025282982 -0.6495385672236539 0.5049020254580071
C -1.752934162684504 -1.8512182105806412 0.30042007595961384
C -3.1187540447142137 -1.8183340640328145 0.01227627379831389
C -3.782363992844006 -0.588823186400803 -0.07769213237011446
C -5.153331171105357 -0.5190105537970594 -0.3670880184280374
C -5.7860164495708215 0.7255753306044006 -0.45348525154740366
C -5.0561940478270575 1.9019711671949278 -0.25271866986665925
C -3.6891287476173464 1.8411453647382217 0.03607281050556728
C -3.0474964708829435 0.6006176313772214 0.1255241617289845
N -1.718140344062517 0.5373835602871606 0.4050640867522481
H 1.6904050952758625 2.2871209023770787 0.40982095391073653
H 2.294186366745962 2.3890972892150772 -1.2999006970984592
H 3.212892742103554 3.153925363861424 0.04183899455810145
H 5.221997765457766 1.9930962711714766 0.3421979410694979
H 6.506207497299531 -0.07094599202882917 0.6872182690899589
H 5.399136171862833 -2.274868390935638 0.5188251678955804
H 3.016079089148893 -2.4300310782446704 -0.012104176772410314
H 0.8580753798399067 0.5252633183941674 -0.9683696164596499
H 0.9830663863975851 -2.3011266650076716 -1.0117429146647197
H 0.6418466027469477 0.15893742293428872 1.5106541258271171
H 0.7217814220561183 -1.609514407429472 1.2590497609176146
H -1.2412514325932 -2.8035930058760465 0.36233191076966603
H -3.6526546751226205 -2.7483352557449208 -0.1423131086994992
H -5.731550602395777 -1.4213659997606045 -0.5259712292938474
H -6.843729890251026 0.7787077174009398 -0.6768675344576381
H -5.550975295471007 2.8621593086866417 -0.3212421974446728
H -3.1319624313015453 2.7570538533017683 0.18977311987801115
