43
077077
C -5.378173293060714 -0.8209443021586783 -1.6451175956783266
C -4.379351580942021 -0.1344388485882436 -0.7616883136633262
C -3.685091503657438 0.9958764922215905 -1.220739186394438
C -2.7254357984573585 1.6102841749754897 -0.4110678514068525
C -2.4425512437561787 1.095481347468469 0.8620311206740621
S -1.2018501428826225 1.8347508898153844 1.8727417409672589
O -1.7314523730855924 1.958031715559063 3.273822925573387
O -0.8816116945312723 3.2147279158389495 1.368747705879824
N 0.24700244692999854 0.8648537196811518 1.8955773907928868
C 0.681924101853628 0.5045907318207234 0.5354454872747809
C 1.795639206807812 -0.518071615324435 0.5928102306287821
C 2.898296897317362 -0.34100338905458477 1.473035260688115
C 3.9488630211262006 -1.275691871461126 1.5027996416660085
C 3.874050730649992 -2.3643881306778294 0.6408113113378384
C 2.8313157501815205 -2.5374532815041495 -0.20925882950751337
C 1.7717193282372776 -1.6374680145351608 -0.2716488198397749
O 3.022129313021203 -3.6925906959401855 -0.9425872893078701
C 4.2601847706191736 -4.283932108394349 -0.523865777148443
O 4.772259678758266 -3.402549262093643 0.4857402592380301
C 1.178191142015756 1.714110717187229 -0.20543885024312047
C 0.8410936417227376 2.0609460914636024 -1.4983980732114275
C 1.5336856064991402 3.2225304221692777 -1.762352980132381
C 2.2520954485737734 3.5091959869957994 -0.6189068888197695
O 2.021026528538259 2.5909757778530764 0.29085831007260926
C -3.1182513137903323 -0.04539577094687033 1.3128821445821197
C -4.078962174667055 -0.6602581668039926 0.5042476564174587
H -5.831076450183222 -0.10279687174890517 -2.361648116495942
H -4.873122491798919 -1.6291869860479034 -2.2138969498598997
H -6.196576630830834 -1.2618496553803895 -1.037107099147031
H -3.8848146681454025 1.3999980104226522 -2.2056762209742997
H -2.1965506842658415 2.477966024550965 -0.7834017033122491
H -0.005545737173044858 -0.016938912073767975 2.3999385172327488
H -0.17407471906265226 0.0629900664491174 -0.021856429193074317
H 2.941083792174401 0.5186355574818121 2.129808290683395
H 4.78912842036541 -1.1514819395906892 2.172731798412899
H 0.9595814575479084 -1.7993110166053337 -0.9690262334092432
H 4.07716825414447 -5.291576943401805 -0.0952664383904388
H 4.966685300698169 -4.339702680205842 -1.3784985351910564
H 0.17209314922326807 1.5339551458599054 -2.165811826326564
H 1.5188221876382488 3.792928856642492 -2.6813038168341845
H 2.909715238132716 4.356252476291448 -0.47850192824968685
H -2.893725763864156 -0.46425896795486804 2.28570968646517
H -4.585537148622028 -1.5477926902554493 0.8633262741495417
