41
077605
C -2.4522480395647483 -1.9864084411937102 -1.98474752535348
O -2.0446562090053653 -0.6300107324761568 -2.1349307723699185
C -1.4253244739116795 0.13265429087357164 -1.131011428727086
C -1.1885434670634092 -0.38754740419192735 0.15206155822544729
C -0.5507339015922468 0.3834148455818096 1.1304515970419575
C -0.23280732528454953 -0.22757371217235514 2.483653376555769
O -0.427621563769567 0.7155816389186767 3.5063833313246375
C 1.2164056132255374 -0.7477392656453157 2.544769829286262
F 2.1126643921440142 0.2982973055866297 2.386374204212318
C 1.4672236208217817 -1.8275060302335169 1.5156118591921635
C 1.9801072123585535 -1.5092038765894673 0.24400539179248065
C 2.1393666058706415 -2.506688470115519 -0.7224482027630856
C 1.7860547368210706 -3.8267112303027107 -0.43179229046509954
C 1.2698794647279075 -4.151340035316838 0.8251813746682827
C 1.1059450249556346 -3.156828261366939 1.7941718373220792
C -0.1420207178822015 1.686370962470211 0.8161134245751237
C -0.3809260064437101 2.234966520238383 -0.45904973808873895
O 0.022588605280819414 3.5443668747222667 -0.7654563924351907
C 0.6942193866139955 4.4244855551760205 0.13046921456168228
C -1.032861761028671 1.4450389682509945 -1.4414676382367024
O -1.316296928674193 1.8962570628521513 -2.7452176472520886
C -1.014794158549389 3.178339147737815 -3.2846618493516115
H -1.5758546865050358 -2.6237418507663057 -1.740350675136017
H -2.892740980139926 -2.3400507057852318 -2.9391802701059153
H -3.2203738732241978 -2.068427735337853 -1.1869701286412544
H -1.4788076114868445 -1.4016570964332895 0.39147352026890014
H -0.9111850068326262 -1.093285672401421 2.672540512353115
H -1.4079349049921177 0.8555613322538783 3.5844177565607156
H 1.391679381960382 -1.173626511853901 3.5572357494649833
H 2.2391524328236234 -0.4881240631373146 -0.006655079735181713
H 2.5296844669765868 -2.2546517052927078 -1.6999137377373639
H 1.9071138953636453 -4.597066692673474 -1.1822377617635305
H 0.9899792679882972 -5.173046652948356 1.04681152725622
H 0.6890576523221075 -3.420182768822514 2.758381723526732
H 0.3687956581642298 2.2663191008065047 1.5723192721371582
H 1.667968895578677 3.9873774309179075 0.43717594094434814
H 0.061446813199813696 4.619000949172125 1.0220388334385595
H 0.8852882149414097 5.387886066360279 -0.3848758572455842
H 0.08259553508660268 3.3469417237518164 -3.286173877348683
H -1.3719627346012475 3.217995377494315 -4.334010573584186
H -1.539522526673605 3.9705637618914773 -2.7104903883682225
