35
079533
C 4.714990155894289 -1.4837391546131848 0.4075350212179133
C 3.3282555284119097 -0.9199824306955704 0.42002410046201555
C 2.850747024913169 -0.23924890424726916 -0.6328646345533321
C 1.4555182392269448 0.3335655938050344 -0.6521882301562791
O 0.5285474240508001 -0.6997526556094215 -0.36286230790142
C -0.8021553840809671 -0.23457184250061683 -0.517024423120146
C -1.769704327547279 -1.4390431420043928 -0.4023494415482012
C -3.1761347645309144 -1.0810222246753933 0.15367175764011162
C -4.270192813172178 -1.928497393823723 -0.49193686566869443
O -3.4833215614254693 0.30258464840910393 -0.016485144672827193
C -2.5499852699623298 1.28323058906644 0.3135323586211434
O -2.9165382150292354 2.4831680116585306 0.428731586269694
C -1.1182844722088885 0.8664246506831308 0.5226649147817054
C -0.12383817686642669 2.0353279602716623 0.36601438797996105
O -0.29040036307645356 2.9381334801908983 1.4295996801204838
C 1.3197165700976288 1.492040791556741 0.3669354392367532
O 2.2398158287274956 2.519897303643278 0.09056448530104512
H 4.822281789620849 -2.207571446238667 -0.42778524617416175
H 5.455356640442041 -0.6651362065045852 0.28525237201593706
H 4.914789845545558 -2.0084141450816255 1.3651482052574455
H 2.708528470401745 -1.0741172254325417 1.2990353725897248
H 3.475816373127261 -0.10624561424539032 -1.5123154227217739
H 1.2835061215075607 0.725670328973165 -1.6821125966378825
H -0.9429309250283973 0.18890888930509192 -1.5415530705567346
H -1.8538480712531935 -1.9062774089052543 -1.4088422395225784
H -1.3235980212620315 -2.2096843706601113 0.26491330967583077
H -3.1800132908250642 -1.2955984347366567 1.2459871151774193
H -4.058078326827123 -3.0084026281224547 -0.340279165721611
H -4.329750678436948 -1.716825509500111 -1.580923223958433
H -5.251524690432027 -1.6918420673553192 -0.02879065874713453
H -1.0201621911909637 0.4390896663500588 1.545913015946222
H -0.3255747146170167 2.5466232042032573 -0.6064532380724352
H 0.10118709397560562 3.8022756008213587 1.1372230892844217
H 1.5387787724580446 1.1011949134179666 1.3853391652629061
H 2.048200379372003 2.857837172596567 -0.8233194671070899
