68
082257
C -3.4057313753003564 -5.958676156723595 0.3827644239360229
C -3.120625100484607 -4.544314587184408 -0.028066862777206682
C -1.9966561812817236 -4.250674839870431 -0.8152976613117403
C -1.710839988975153 -2.9292854269523056 -1.17150303958438
C -2.5405943198767 -1.886595364746881 -0.7348369298382237
S -2.1808977357718233 -0.2134683026590912 -1.1509088169953994
O -1.1035316084861224 -0.17552444433423672 -2.1992888144134475
O -3.4267493861029705 0.3966617323766888 -1.7238600361071763
N -1.6552397119974158 0.6319916114671534 0.2996328309907723
C -0.41434110304916166 0.04753841698904617 0.8510649097430008
C 0.8281068461854495 0.7845676023383037 0.3480892500734702
O 1.9696822325298833 0.1586329986462814 0.9038121961219717
Si 3.200008098178131 -0.15251023606504446 -0.2857526214250927
C 2.5835094795193085 -1.4419275403582963 -1.498334957480795
C 3.611346472638897 1.4165305153189096 -1.2258733349645217
C 4.738143458259849 -0.790611754090835 0.6296128731465882
C 4.353356926762427 -2.0270189173613224 1.4601159758480964
C 5.258591749743993 0.31217059340049086 1.5677906742380265
C 5.836251084181174 -1.1692283809505717 -0.3789642825123195
C 0.7963899299280883 2.2668071968260106 0.7694227621225687
C -0.60759801797248 2.7583472684759727 1.1881205398429155
O -0.6549060851601869 4.1637561631282765 1.1237699369785819
C -1.7751894201980316 2.131965843026805 0.3396755309823202
C -3.105052544815734 2.4619024512113374 1.1078191345879687
C -4.299268542730974 2.8320729393249793 0.23134275271560678
C -3.923806735706322 3.9856817565956772 -0.685459817804134
C -2.8510041689852326 3.561697142845148 -1.6823137369503478
C -1.7251332592751327 2.7604303747418504 -1.0704009251171007
O -0.7275246249663887 2.599950368930703 -1.7566075265444705
C -3.6479802164530075 -2.1752136707660314 0.07246270807256086
C -3.935412315253807 -3.496553534007813 0.42762308354253026
H -3.088344398398842 -6.667079271800319 -0.41230117028031643
H -2.8522737610468796 -6.190766162739294 1.3167445498430408
H -4.4926813709350775 -6.105332944308688 0.559470381963201
H -1.3410545715807467 -5.0442892102397865 -1.1521029154662805
H -0.8382998311910536 -2.7222571770882493 -1.7775181842565588
H -0.45557394134006557 0.08811982143579973 1.9616516745942252
H -0.3251845538925038 -1.0295439967547282 0.593071945715738
H 0.7880727728153262 0.7385682048450074 -0.7623192525633873
H 2.300671874149091 -2.3646649520235368 -0.9527191615408166
H 1.6968780637592504 -1.0567410237862669 -2.041114448743943
H 3.379090408219255 -1.6742889020242084 -2.234622399435651
H 3.8652258473087877 2.224356928091467 -0.5095499820565652
H 2.73960806171341 1.729883752573801 -1.8352801665844438
H 4.472923919029852 1.2351808608194903 -1.900457933813391
H 5.231675770618888 -2.4034348881819825 2.0276899467780374
H 3.99173698590672 -2.847041803304564 0.8036157918137821
H 3.5516307520037156 -1.7787727016210797 2.189120701401417
H 5.5801532950856725 1.204035678420925 0.9884095566488504
H 6.133228314915671 -0.05020910162707498 2.1506136866168624
H 4.469097566577887 0.6238321221398458 2.2859863486742578
H 5.494162131750375 -1.986253207396438 -1.0492562050733754
H 6.121560942368988 -0.29562538564360413 -1.0024221060040346
H 6.747120386873631 -1.5212073976310088 0.1527503419313533
H 1.183873314366629 2.8898665764616602 -0.06573561639290768
H 1.4882662552110695 2.4317435756748096 1.6255016388608894
H -0.7549584879623206 2.4457523703267032 2.251086539415142
H -0.096977543834338 4.505737879548887 1.8709198433098364
H -3.3958189344220475 1.6024970034774895 1.7512926085864438
H -2.962406573699224 3.3119013435440157 1.8127334304740204
H -5.1386781569645334 3.1519064513159 0.8861134927810879
H -4.656250199788586 1.961859206498287 -0.3515213543867266
H -3.555529178628675 4.844650057677648 -0.08160917752667296
H -4.824839583566667 4.324843843118863 -1.2408547352535453
H -3.317219257801718 2.962128641247152 -2.4940766785898827
H -2.428807785200077 4.479730349636095 -2.147256925028242
H -4.285425126553136 -1.376152668440297 0.4305364144757917
H -4.791957240951606 -3.7020356918154906 1.0577592999961187
