60
082869
C 2.4109881823347803 -2.9747438085657802 -2.695618500548101
O 3.062814178744044 -1.7430028840126734 -2.4029964682289937
C 2.8492380979968983 -0.9877820444451361 -1.23894114314121
C 1.9630287459401674 -1.405675561696156 -0.2310061932261625
C 1.76890693122115 -0.6262152835838913 0.9093808961827612
C 2.459834655419836 0.5885719086656112 1.0746770374451409
C 2.198811128700421 1.5215177428542839 2.251104986125879
C 1.878938772818768 0.7888191294694857 3.5730025004726693
C 1.734741240270346 1.7929916876432368 4.721109420316152
C 0.6282130580121206 2.80989981917413 4.419596916665661
C 0.8790030392302884 3.5373475610662197 3.0888382533251835
C 1.1110420144741207 2.570715809955138 1.9073981219473484
N -0.14749102822422916 1.9248740124878452 1.50676838636748
C -0.47841782544998923 1.6809109547488537 0.12790148380680355
O 0.0904215275453523 2.353589880813145 -0.7753399902444524
C -1.472960858135869 0.6484261782697364 -0.25827715830162357
C -1.8228196595110027 -0.40582646116235055 0.6284331376723562
C -2.7393061421571216 -1.3989786864080713 0.24432029165150257
C -3.2947634563772255 -1.3275817421874323 -1.0295825312251428
C -2.95742644038057 -0.3114009388159189 -1.9037342967846187
C -2.050899055117382 0.684495668981498 -1.5490837505655115
C -3.6882966822996783 -0.5153826689026089 -3.1511613484055876
O -3.637490162982735 0.20640126857968286 -4.181664716413111
C -4.48759398337376 -1.7228977924804132 -2.96839963363128
C -5.362667902886563 -2.3631872426839444 -3.8442510435760693
C -6.007992341774976 -3.5303209206812407 -3.399613840667903
C -5.76869729020455 -4.030473194569519 -2.1018290526948498
C -4.881632576738231 -3.3689251474465975 -1.2345044614254888
C -4.2521158095031675 -2.212476980903698 -1.6945340419798094
C 3.340199672031119 1.0053912234974622 0.06123255081442089
C 3.542462899591926 0.22202982816759026 -1.0917193975948896
O 4.417618498877309 0.6163190290606211 -2.1164735249813824
C 5.179837756147139 1.8190193147600529 -2.1095628355709
H 1.3120138758767472 -2.822444033421212 -2.74617797358494
H 2.763652006007393 -3.346608288913181 -3.6792918755530297
H 2.657596792787115 -3.730906125473382 -1.9206563418505405
H 1.4086978237449752 -2.329611200337156 -0.32350756009130105
H 1.0607176224852557 -0.9751547836911619 1.6448231810439695
H 3.1445544109695582 2.0820007722450327 2.435419597549198
H 0.931418097148334 0.21543511306073765 3.4970278004204847
H 2.6990420413592484 0.07780994458277775 3.8133136209772225
H 1.4847548533815202 1.2473324618355324 5.656427348420789
H 2.698930009378324 2.323406336184949 4.882697481305696
H 0.5918440986885722 3.55882958206765 5.239767395065636
H -0.35670039314275037 2.2967612726063322 4.3974962677166145
H 1.7739649497050363 4.188309012516121 3.2028225018583703
H 0.015246873917165152 4.1999086849957346 2.863775272772313
H 1.490702193241408 3.1931375507337725 1.0668052743021255
H -0.7736968045803219 1.54870411489536 2.250812351334154
H -1.3736328202661061 -0.4854957711060041 1.6078115525264316
H -2.99767704046904 -2.203168151678214 0.9206886390052225
H -1.8050911575405006 1.465670865625735 -2.2575587311009175
H -5.540918993432668 -1.974246184477277 -4.838343659754669
H -6.6930136593167076 -4.048958121037986 -4.0576481488995215
H -6.271510465558807 -4.93008002934224 -1.771544532054725
H -4.69474322569447 -3.7488262396796084 -0.23871056818071804
H 3.8533905715237844 1.951385774976175 0.17072560444399038
H 5.868624174550606 1.8297547465531043 -1.2385575065669467
H 5.782554336497055 1.8712904250560445 -3.0392551492496325
H 4.503750644500543 2.6993126115732013 -2.0746318954415415
