36
083130
C -4.169755231454468 -0.6709272868958283 0.08029520626512154
C -2.9303055419821087 -0.33335557910354496 -0.7077208338543008
C -2.8047091008791467 -0.8100125938425501 -2.134784178697243
C -1.9620714629808045 0.39122879834963686 -0.10459312866517992
C -0.644418936770498 0.7757536550094282 -0.7472565031869498
C -0.3179148318756427 2.2691666432948865 -0.5037174861584672
C 0.882511853596114 2.3271481439834125 0.47292358178690413
C 2.0111144898151263 3.2204022876799376 -0.054026644555545886
C 1.3098313806613067 0.906934918636653 0.5951147627102791
C 2.3878872842050267 0.4144872623326879 1.3351548155553807
C 2.6337888986392732 -0.9675544860587335 1.3576047564488543
O 3.7226001940733973 -1.4330462460711337 2.0974330200411644
C 1.781342782485666 -1.849344915078874 0.6400841470276006
C 2.0175427304238904 -3.3339305140913487 0.6447963688817749
C 0.6892674949019354 -1.322937809501902 -0.0787178304614495
C 0.4709895503336834 0.057009884273248025 -0.07900292894046959
H -3.8935328563917877 -1.265108919741208 0.9771199886691829
H -4.891299998675509 -1.263284831719988 -0.5198782413823121
H -4.673824742842954 0.2638618236304117 0.4054021127908845
H -3.6878772254009626 -1.4060146466274925 -2.445067016683675
H -1.9063593823709628 -1.453127334552482 -2.2432438177326004
H -2.7255288118552112 0.06134975833085367 -2.818370983777937
H -2.1048879781124485 0.6850894046008378 0.9336032553288021
H -0.6152461530415992 0.5647015645196621 -1.8366139361980105
H -1.1828951415430045 2.8272893577286915 -0.08082677840806131
H -0.06633848598242598 2.745259693627138 -1.4779843655817468
H 0.5458731899670568 2.693849602609226 1.467572506213318
H 1.6320358884973976 4.252630725218053 -0.21012628641031098
H 2.404201299461642 2.8306614582126435 -1.018014126447281
H 2.8414249953013315 3.2648393659180597 0.6818268451097146
H 3.0283599972254205 1.0905674474833726 1.8869417737519538
H 3.9639510357373378 -2.413448740749135 2.1650599294768478
H 1.2658573609890025 -3.8701518567584734 0.027114157977425633
H 1.9500713961136669 -3.7212373179604836 1.683104294413843
H 3.0234470491663537 -3.5555343374726966 0.23044084060194506
H 0.014867010564907794 -1.9732143792129615 -0.6216472759094547
