23
083176
C 3.6903970198978087 1.2453603932140835 -0.1979782468700682
C 3.200161274699393 0.30073442122430105 0.8925817488408686
C 1.7376681929318525 0.19715906485316742 0.8628178656803128
C 0.5353893920530783 0.11273585264220864 0.8366523845220292
C -0.9290879142241009 0.010047365954813016 0.801819888140729
O -1.5038847346927664 1.3035891419868395 0.7752142397160047
C -2.476580476799018 1.39311537083219 -0.1954293811735845
O -3.1630737625552245 2.431775992357735 -0.3806551636700653
C -2.6296881580402673 0.14893854901029696 -0.9762290216934114
C -1.434956101611823 -0.691925644196241 -0.48742858745442647
C -1.8168000117472107 -2.155320429043589 -0.24126213404620608
H 4.797752080601363 1.315937149497931 -0.15732821225966692
H 3.2643288303160203 2.261410969390059 -0.05022317105191747
H 3.395676218303587 0.865057544808968 -1.1996774414121896
H 3.517077509595206 0.6815016747467315 1.88662087560238
H 3.6390122686223525 -0.7076579116379584 0.7376583217582311
H -1.281147465467133 -0.5159428623609739 1.716122354257847
H -3.607252129664483 -0.32018219655969304 -0.7300625911107733
H -2.5617979547568703 0.3549568421475538 -2.0663498140245413
H -0.648409876347208 -0.6625219763807404 -1.277207518534295
H -2.1793432052793507 -2.6155994069947597 -1.1850692487506302
H -0.9284000704013182 -2.722464225146426 0.10907465508705917
H -2.617040925433887 -2.230705680346496 0.5263381984463134
