58
084030
C 6.750022257108848 3.7303633849296975 -0.7547856756770073
N 7.213133358347874 2.58003336983491 -1.5266764512053896
S 6.754513481690895 1.1103821629894175 -0.7223001721331307
O 7.480777510645981 1.0199360392347514 0.5929187302249379
O 7.184249406972943 -0.04855839382908241 -1.5800568891466849
N 5.015839556047016 1.096999299408282 -0.4837800749800425
C 4.694274451991326 1.270850255745048 0.9443653030372896
C 3.178387890455609 1.367624025768329 1.138493551145806
C 2.487024502003443 0.10719394804798851 0.5927429414393315
N 1.029726721268361 0.2421105170067685 0.6879018741653243
C 0.14191565763835193 -0.8789566850487892 0.5884571344026347
N 0.6294692181777831 -2.1402337650132894 0.4478815287688464
C -0.20318406059707203 -3.2063541049101354 0.3497325419351794
C -1.5877893716608575 -3.0156458594971634 0.3932238625248316
C -2.468121248790763 -4.085322509789582 0.27107147529719827
C -3.8338147936425098 -3.84766042777197 0.28660850329375165
C -4.318623637664391 -2.5453414302236617 0.4387952733288642
O -5.56648320346825 -2.3799458147841195 0.41212317156807804
N -3.45467462065991 -1.4763791527544898 0.6024883455216485
C -3.9493470802281925 -0.07154607732318759 0.7726926546338794
C -5.101914533817988 0.05866539371545285 1.7847143256079605
C -6.344122635789571 0.49076216675782497 1.0043650275668512
C -5.97549185218011 0.4951575813160797 -0.47544514823422923
C -4.445088857801261 0.5908225620322665 -0.5392061658513233
C -3.882657112231017 -0.063637745736775 -1.8204662127389646
O -4.062984675301113 1.9492223745295656 -0.5097091526345906
C -2.0915522318273663 -1.7071030640574818 0.5527178232166203
N -1.2009796391214131 -0.6781078136185708 0.6408269429808702
C 2.9037864585281103 -0.12545234996586796 -0.8687948678016819
C 4.431297647701546 -0.15401045338275893 -0.9988928228526647
H 7.18292846955065 3.7112575382411324 0.26819907781896835
H 5.639965674066154 3.7479434222768715 -0.6958323042946104
H 7.0876152416748575 4.66344504489997 -1.2525128815453528
H 6.716119821784481 2.593350180964768 -2.4467888333587795
H 5.094340509021157 0.4238388551076498 1.5476465849734984
H 5.150178360958975 2.211968869457783 1.32137743420879
H 2.951744899862254 1.4780644754145802 2.221198793920678
H 2.801344126644179 2.270544038985589 0.6085069074197891
H 2.812591191942294 -0.7598489033967881 1.2112612137929517
H 0.6086567752979407 1.183338174323958 0.8616865899409112
H 0.2169456938724083 -4.197510000913973 0.23185656580971437
H -2.1019920949447943 -5.097645584562173 0.14728987692188886
H -4.520703779143949 -4.67722901085336 0.17017819918272936
H -3.13432304655729 0.5610075457813861 1.1889413482541102
H -5.2812406196537856 -0.8774638414460836 2.354563083320968
H -4.859242578203405 0.8422516471629804 2.5374489288259454
H -6.6447153443816225 1.5157909167021015 1.3149346817932421
H -7.194204267414208 -0.19948345230772016 1.1955533710759672
H -6.3360263690683425 -0.4420166067495704 -0.9509933413537853
H -6.468724095013112 1.3418529727014348 -1.0014438190294859
H -2.773266642535007 -0.009719851622726223 -1.8205400187347787
H -4.192524905169787 -1.125442684432444 -1.9088609197171784
H -4.2578829823944115 0.4694667557955768 -2.7199238732263074
H -4.409140437106427 2.3888979239325177 -1.3304251329642809
H 2.496308093614558 0.6876729594350487 -1.5096844932838775
H 2.492426240303802 -1.0907705893111326 -1.2333137167535195
H 4.674727742147143 -0.2639705292720809 -2.078109454979551
H 4.84050575704899 -1.0354576999247502 -0.4542212454228369
