122
084530
C -8.33849175692115 1.1061635663923324 -1.298334107415124
C -7.753570983498884 2.502448085018452 -1.0337071507041746
C -6.219032707933013 2.629418771835522 -1.328509515953836
C -5.820813974033934 4.102944657461611 -1.0935790814981774
C -5.9927686585023805 2.2910082768511013 -2.8290355119070854
C -5.319162532821118 1.7501953975009292 -0.42048826238125486
C -3.9692298995272735 1.5608081333842756 -0.7544738252737814
C -3.116360037872128 0.7920407014661899 0.04015662330823656
C -1.7419983258271066 0.5724525160950238 -0.4558449347693484
N -1.1892000220147565 -0.5925005794623501 -0.38824818219043283
Co 0.44663860945846906 -1.7611131012850478 -0.8313089093698516
N 1.1101770903277428 -0.8540752891164938 -0.6057163750996771
C 2.3448478059747657 -1.1226994942287614 -0.3247158860462154
C 3.3398993195535773 -0.04657416751295341 -0.0699123196648702
C 2.9833813269546705 1.2955738587956647 -0.2666339555077493
C 3.929982343545511 2.3315600872459976 -0.14868340261132226
C 3.566335195799748 3.832281870193329 -0.3413408670242672
C 4.310530160693565 4.3609082406412165 -1.5903456912480092
C 4.025198234202439 4.623489468032081 0.9100096133567241
C 2.024392621572519 4.044288437932973 -0.5376567911503669
C 1.5441532621471281 5.498428394280466 -0.6561638309894033
C 5.270631210587187 1.9622611601096833 0.0983691985835289
C 5.682880179154334 0.6204016161946515 0.29642855155840214
C 7.182748661349325 0.25490386989214586 0.5449975988561878
C 7.333760196516247 -0.2998106984225886 1.9827867042723553
C 7.634645551215302 -0.8065063350103034 -0.4971962894086319
C 8.129773761950808 1.5007389596100351 0.3995669909809515
C 9.641523192302378 1.239339081838552 0.5226920584264978
C 4.665248637671182 -0.37498771221698407 0.2939200768356131
O 4.974613284262708 -1.6987606391543253 0.6335837212389104
C 4.3824528977427635 -2.382259473669184 1.7056370475718023
C 4.715899269972391 -3.8182698288671397 1.9292247956414756
O 3.5723668084008504 -1.798578960805803 2.4802106592988773
C 0.05017653471438878 -4.365282373121449 -2.674222605320607
C 0.7207027302590117 -3.326770665634474 -3.528133059622845
C 2.0733986854552873 -2.9745751747605627 -3.3577565095292203
C 2.64752898997252 -1.9866548004360955 -4.162026174288522
C 1.8894765522059975 -1.3707473755480744 -5.170172141970588
C 0.5593716295801201 -1.7489187304275098 -5.369975505827086
C -0.023943460284098224 -2.7227906093581797 -4.553589419250821
C 0.4771184377082523 -4.306869464124343 -1.2062191970821308
C -0.6487459228104261 -4.736368497651973 -0.3090141109757548
C -0.542983938850533 -5.902059755832534 0.4681019125611767
C -1.5949603822343807 -6.27728835363938 1.3142599271916438
C -2.7546232454358646 -5.498015066742426 1.3817699263363936
C -2.870371179266986 -4.348347509935123 0.5953195414947422
C -1.8227133199220467 -3.9693006774356525 -0.24802819037710663
C -3.5883647419104303 0.24980254341214891 1.260213556737071
O -2.736267473971102 -0.4901633268829805 2.085129991238999
C -4.932657500135038 0.4722496078878092 1.6717972154019267
C -5.474754049001631 -0.1238477238830851 3.010960202537882
C -6.8884480588345225 0.420524803170582 3.3689831717035816
C -4.536647024250602 0.27348100851129403 4.185490207472935
C -5.5528893214194825 -1.6768118181592944 2.8512349258150302
C -6.141247074055186 -2.4289597819979107 4.050234656486074
C -5.772573978350228 1.2177374165621615 0.8054696298686593
H -8.470967375994306 0.945756960800174 -2.389759926953389
H -9.336262091402585 1.029297662652639 -0.8181095098690673
H -7.690930982378338 0.29950993241375445 -0.896102273069628
H -7.98517011694547 2.8152213158070034 0.007957560333523617
H -8.313265820290864 3.2219967144027883 -1.674453501159875
H -6.43896770566196 4.791063317259798 -1.7116953235506651
H -5.958638987144885 4.377342964523066 -0.021208854687383524
H -4.75166019039395 4.273263243089822 -1.3527070602280546
H -5.0191994898436905 2.6741862806216536 -3.2085335101585417
H -6.780155866497228 2.7559112397895364 -3.461903183177832
H -6.028038129400223 1.1917740720004528 -2.992586518535246
H -3.568295732850982 1.992897205155376 -1.6601899132126556
H -1.233378368066694 1.3641310767227486 -0.9907047143293494
H 2.6534366165089542 -2.159292668313311 -0.32394236675768967
H 1.9582397642682978 1.5095462668217334 -0.5306837010020107
H 3.9272374952190408 3.8618575972583327 -2.5063861297624683
H 4.18515298880689 5.453477410622625 -1.7036862279064264
H 5.404894372957705 4.17221961936738 -1.5342697723161016
H 5.105900455369759 4.492192669773476 1.1258543421391884
H 3.454683677719656 4.29883746090602 1.8086359230086775
H 3.8848845495872535 5.715175125957509 0.7758635143982391
H 1.702364210697307 3.524350617068661 -1.4682726139388955
H 1.4765219560665885 3.5870091216925823 0.3166266122508046
H 2.0360023034534316 6.027514725892615 -1.4946643702057372
H 0.45291902406849804 5.49751891591051 -0.8620471194319481
H 1.7052157948050977 6.053440250582099 0.28780852896953857
H 5.991856247907558 2.7546239936804007 0.12936230059523182
H 6.776321671851027 -1.2398664591649173 2.134075580490543
H 8.386249435105041 -0.5489683355699229 2.2225630259085
H 6.971482629422151 0.4430017993463104 2.7229444145137927
H 6.90967202213555 -1.6215729273951285 -0.6545193084356806
H 7.79413787038794 -0.334243975658864 -1.4906014025094427
H 8.581929300223116 -1.2963968256747402 -0.18322621816525955
H 7.97519488928768 1.9640005181659097 -0.5993783352639546
H 7.8784089010298715 2.252039886089765 1.1809179404003896
H 10.183909950895012 2.187938538595887 0.3202720563226144
H 9.99257901021131 0.496454461641158 -0.22267770059195274
H 9.917733062053873 0.9107924254012985 1.5463733354267486
H 5.7506968971361045 -4.022631088949426 1.5749398084866606
H 4.654416074756393 -4.058391755489212 3.0120511833728365
H 4.0009095523344795 -4.458121963231816 1.3642877434776144
H 0.1540466327614772 -5.390282729637167 -3.1086323647400156
H 2.6749098606382 -3.4436314732411084 -2.588153954736313
H 3.6759839051370227 -1.6865970041048268 -4.000045369318249
H 2.334757948954817 -0.601448126412365 -5.783602946374347
H -0.021199159738008726 -1.2811284568667518 -6.154028683493636
H -1.0575315642223668 -3.002339247064102 -4.713539955969992
H 1.3987130552699094 -4.918646812207424 -1.0483804787641382
H 0.3516813636867417 -6.507508572765189 0.4323892440584291
H -1.50844335670966 -7.173002639518718 1.916373572067881
H -3.5663102686860233 -5.7936640938910395 2.030954468137301
H -3.76915779331066 -3.748509217172297 0.6463173633380251
H -1.9329787697014456 -3.0878600735033537 -0.863329839222945
H -1.7351836439009833 -0.5410095718074419 1.9691487338079496
H -7.655380665669168 0.051150832031552414 2.650032273115502
H -6.891231810808818 1.5316208704452543 3.382456153282011
H -7.209854611462728 0.08966100943911809 4.3801950211272604
H -5.05101816242142 0.19342708235286016 5.167463312940725
H -4.191837719446926 1.3245893323619282 4.069761218642387
H -3.6538028664365516 -0.39188608021303956 4.259814893638684
H -6.168613165818622 -1.920522145745658 1.955832883790049
H -4.540482144919026 -2.0949131932428706 2.6606758544446136
H -6.019599796294621 -3.5242520603653404 3.8918886892757816
H -7.231406180554118 -2.2229126442453344 4.147422968859993
H -5.6237166064160595 -2.15131658863014 4.995697395024012
H -6.7873979588923 1.4005816684444683 1.089548531875976
