42
085554
C 4.26537871625104 1.2357237438797475 -0.2582330913276408
C 4.27638586486806 -0.10336796769866055 0.44184241138132296
C 5.486423348148688 -0.9935862794502517 0.3230859477165989
C 3.2349217966901724 -0.5282554576242456 1.191164000881381
C 1.945995843234108 0.23536867836632755 1.3690812123467284
C 0.9469556128291009 -0.1200271026523194 0.25186556559201245
C -0.35890749572470343 0.7368207765277821 0.26902632431058415
C -1.1827931687510929 0.3899573162546077 1.5272104588111515
O -0.014374704309214456 2.101145120378535 0.3745275595763985
C -1.1694297297109808 0.5359861241846795 -1.0749566775398942
C -2.4444567187443007 1.403309566122557 -1.184001689578354
C -3.67634541236613 0.7459816851003375 -0.6181504491793596
C -3.8066950588283572 -0.5879883546311852 -0.47838017410402794
C -5.093600240696182 -1.1390330820434658 0.07158466672230154
C -2.6717681296476994 -1.5477776800972118 -0.7644601325261415
C -1.4890599164313183 -0.9148754400900675 -1.5088292268255086
H 5.191605491854975 1.3930677781746728 -0.8488328588264316
H 3.4057596482579724 1.3011417672837922 -0.955822033596902
H 4.198202988624604 2.0531385953664234 0.48973393074416705
H 5.195395904555633 -1.962169178711292 -0.13595250665942668
H 5.913515412500047 -1.1832497736987624 1.3306824197798506
H 6.275790522954218 -0.5337319338443893 -0.3071306563073384
H 3.3029776983052592 -1.4945842072027098 1.6853101696428896
H 2.1414215818443196 1.326490880824123 1.4100750715551558
H 1.516425262707532 -0.05648639354443206 2.350110798728752
H 1.4476990157614937 0.007139402115717379 -0.732139737145739
H 0.6951934319571874 -1.197742824644345 0.3554285486310692
H -1.3296392972555047 -0.7004046673013593 1.6380423039369587
H -0.6561241238528758 0.7427230581643075 2.4383943283423912
H -2.163869571850558 0.9027021540395588 1.527480239233874
H 0.5836706940817951 2.330696255039934 -0.38490369951724607
H -0.49340865323890465 0.9187591687041039 -1.873860948668935
H -2.646614506028102 1.6112184054771734 -2.2573573704639207
H -2.2973452079970826 2.38705311799201 -0.6907011281143552
H -4.519180866345318 1.3903550027860265 -0.38190530092608593
H -5.932429261373913 -0.886880654763057 -0.6110600794173267
H -5.042429723053539 -2.243784827527723 0.17390319426401493
H -5.293277606507229 -0.7033796807438799 1.0736136627733843
H -3.062184781449648 -2.3842884639172723 -1.3838658055930129
H -2.3259081165125046 -2.0020890762825765 0.1841878013625078
H -1.7526906470121149 -0.8912658460000085 -2.590268826170585
H -0.6011858977389404 -1.573809704313203 -1.4355382238452625
