119
086847
C -4.886208249261288 1.0289198632241388 -0.33869622638910624
C -4.110054454096812 0.6055363047312836 -1.5838839751063536
C -2.7487289760116256 1.309816083648819 -1.722428244520951
C -1.7289633333910015 1.018263519648642 -0.6036073995047959
C -0.952655122854019 -0.32620586376558575 -0.6813197398664558
C -1.844897556416109 -1.5046924802148116 -0.402182732014053
N -2.3453714722466485 -1.7703919566133093 0.8259446472145658
C -3.092372799401346 -2.8739192278473347 0.6252714821464874
C -3.9558353569882945 -3.4616395082880445 1.6647704692751397
C -3.842525353335717 -4.816519240167124 2.016204710548772
C -4.651773899792091 -5.355784428292267 3.0220747556528993
C -5.56697501301815 -4.539517515685066 3.692667743733808
C -5.6718834814758665 -3.18526492261174 3.36078348509857
C -4.864229144407691 -2.6432943868499303 2.354905701258349
C -3.0449298280303863 -3.2114314941586173 -0.7156360342681659
C -3.8031570014767055 -4.253485704740893 -1.4181285069468115
C -3.4766569315608145 -5.608285300542752 -1.2649511361475578
C -4.213422027585062 -6.58721450763162 -1.939743815959916
C -5.269780944142318 -6.217452319538436 -2.7770648250088112
C -5.583598373144142 -4.867033501152161 -2.949758373130252
C -4.846492962829836 -3.8857567948799834 -2.278933938695955
O -2.2631332836602933 -2.353409888722855 -1.3168460599071214
C -0.0367893147673741 -0.5488808727188542 -1.9248093955252608
O -0.8091183078659827 -0.9079506776792351 -3.079495655818348
C -0.413888914631416 -1.8989554941238047 -3.9952895176071044
O 0.6689226467021773 -2.5251013701341396 -3.822212463137863
C -1.2845064326575184 -2.3038414153184674 -5.158426495059684
C -2.2480672363033927 -1.2242801912783232 -5.702546836439774
C -3.492959281325388 -1.0769996142006588 -4.8236025668125135
C -1.5594101321089366 0.12745172350441616 -5.9447759104828455
C 0.8713327838069772 0.6726493596847126 -2.214580233455447
C 1.8472077977125763 0.40763738122777077 -3.362767186213612
O 1.6198045288136325 0.9614094899029028 -1.033928807252011
C 2.122764246456726 2.2212551933000664 -0.6987384428136199
O 1.9318246940161867 3.204549255433188 -1.464344956427894
C 2.947755938913959 2.372729421666076 0.5612352378958133
N 3.1904693315013235 3.7892513737422724 0.8623066526288976
C 4.3639048483810425 4.243768728790747 1.5486267802490552
O 5.328027473230244 3.458247296019602 1.754879160319149
O 4.423264852388385 5.571524485265133 1.9815507279301179
C 5.570052062882792 6.114288944000079 2.6300007395635703
C 5.287113672938211 7.536463200682084 3.0268577299461037
C 5.188040454440591 8.537006730435364 2.0436107669177255
C 4.8946217190378 9.857022157631059 2.4049128461126337
C 4.689740844820487 10.181114688194153 3.7489599750938103
C 4.769458009711466 9.189639691491415 4.733000016288917
C 5.067921673211508 7.8714011671816 4.3747027995818915
C 2.303077764526196 1.668576339833291 1.792329555893992
C 1.0059873607358838 2.363951658081292 2.2269038569904214
O 1.98527852310507 0.3167927318463258 1.5177832541087173
Si 3.3156965532712017 -0.7942683861546787 1.7272910989349044
C 4.14529718801887 -1.0783476324336339 0.06956893155931684
C 4.62646624328938 -0.2099072939148523 2.9410576208037056
C 2.56120280430003 -2.432481064628323 2.3378886872256435
C 1.4741805498248521 -2.889372044608435 1.3498324645086353
C 1.9291696965004295 -2.212109215337557 3.724289823815319
C 3.646315771587865 -3.5189044145965047 2.4344081329789304
H -5.920717574279027 0.6250469400417802 -0.3958262069305582
H -4.949656062915836 2.1359369849743217 -0.2735026328776897
H -4.4175566915184294 0.6230588316724638 0.5806840230138685
H -3.9978769734577724 -0.4938101131178839 -1.5854073158237678
H -4.722291726728748 0.8662128397893134 -2.4768501777438656
H -2.9377531942776143 2.404037098535107 -1.7357098234864574
H -2.3069819571276655 1.0777359274120777 -2.709189063668853
H -0.9938134015570679 1.8502052077056474 -0.6011316051922699
H -2.2207755005939696 1.0974301820384773 0.3862349724784073
H -0.2626196648065551 -0.2868811853700925 0.18573754366810052
H -3.1140649517505863 -5.451813377092919 1.5370652147990957
H -4.55941227444015 -6.40264557799039 3.288744217106943
H -6.185087765317472 -4.952685665788654 4.4776917278837765
H -6.378623658141382 -2.555752421642236 3.8837825211083383
H -4.956831804644551 -1.5917778403315814 2.1073417689932383
H -2.6406799805789314 -5.908241186410788 -0.6516180578179849
H -3.9676266489166276 -7.631015576046047 -1.81297910670045
H -5.844524289096825 -6.976757980663996 -3.290366272692637
H -6.394738094223757 -4.578071253092115 -3.607656282968006
H -5.1001603699398 -2.842747950804638 -2.415624976662728
H 0.6254203644466035 -1.4001797057114085 -1.6478725171511943
H -1.860750938423104 -3.2053056768598407 -4.861319806455997
H -0.6190629723580331 -2.6201544056778094 -5.993135737681493
H -2.6037399106151975 -1.5824523967866333 -6.694115093120224
H -3.2132049459138394 -0.8523955493707098 -3.7839538672544335
H -4.0754882775199315 -2.0177960307122103 -4.831689804454811
H -4.142868370429088 -0.2660372619162704 -5.2057993229433395
H -1.3071243086606443 0.6354335141958595 -4.989857713353387
H -0.6299837426428706 -0.014655823853519257 -6.53481010871185
H -2.2333710844245283 0.7956596715974011 -6.522110603304083
H 0.23831770850723039 1.5427152624227285 -2.4984206057169276
H 2.5236642120763415 1.2779407416560291 -3.492055814397374
H 1.3008043955395037 0.26780695841817037 -4.317537597055119
H 2.4669516696415834 -0.4891606479839458 -3.1489218462981987
H 3.923963133761104 1.8915470706873088 0.3538911687909208
H 2.4136865699252126 4.479989414076733 0.7309962518236127
H 6.437920076883692 6.088272228820397 1.9336399145785903
H 5.822665621037622 5.500309674077495 3.523626710524774
H 5.3414528452733006 8.29404176902789 0.999516841986544
H 4.816234813165731 10.623550908483745 1.643136183733167
H 4.460624102759986 11.196763138052116 4.029437223481849
H 4.600059148658685 9.442886844469498 5.773265082306464
H 5.123306303803711 7.111764890198322 5.146856728675639
H 2.9848722216098644 1.7641425285610457 2.6621223243198306
H 1.2104946093884936 3.4010268730835285 2.574297076851904
H 0.2757833593360636 2.3965802236918776 1.3892518426507692
H 0.5522170987289485 1.8022234167707623 3.0714974118818534
H 4.893287405816618 -1.8899585036806796 0.15773939746822863
H 4.671112960350177 -0.16270405121090312 -0.2620652579137796
H 3.388254710914645 -1.3573658117252076 -0.6918547782053938
H 4.156662589475913 0.015316703395357444 3.9220810975408784
H 5.388646008144708 -1.005723009969345 3.0712129766179346
H 5.124049749413793 0.698842464992698 2.5445377598701353
H 1.8945225804111545 -3.0327210212801496 0.33126953988512076
H 0.6534097082421463 -2.143543908258635 1.2974207726316243
H 1.0338608610697257 -3.860135798514279 1.6797192517198307
H 2.7051440316102613 -1.9446571228769245 4.472658934476418
H 1.182421787755705 -1.393430796127852 3.6870119315648053
H 1.416816599577596 -3.1322799594877258 4.070838817944164
H 4.457004948375172 -3.215316383751261 3.1296473533668805
H 3.2138114467635868 -4.468133620019159 2.8110681702938973
H 4.093428643495513 -3.7267387550587787 1.4414388627816914
