56
089402
C 2.477135870466726 -1.4716312285190454 -1.3425035290690739
C 2.363853433070794 -0.7988938861558468 -0.18610970227794765
C 3.438472996148135 -0.9587474085048769 0.8665667299776507
C 4.453143645842202 0.14769170595930303 0.7509806704373664
C 4.3880448394591856 1.2645321184614138 1.6024534459138673
C 5.313831917467368 2.3043060873694614 1.4720155094334393
C 6.305477204235051 2.2407961904785014 0.4886220698011703
C 6.3718249729080005 1.1386095194237744 -0.36689521180398876
C 5.448555321272711 0.0958551408055991 -0.23909700286567398
C 1.274793797036923 0.24811739956126605 0.01474064047460123
C -0.19687205388218298 -0.3014980019146531 0.07410208971761012
C -0.2189220134235747 -1.5038490667324511 1.040105173266364
C 0.22600575093898512 -1.3832257776119155 2.4749690378242897
O -0.5751338823858743 -2.60864056944934 0.65961078457401
C -0.6365632544797539 -0.6670888929851436 -1.3487994210696737
O -1.3900604709685 -1.6560800544173166 -1.5644799082473242
O -0.30815159112987756 0.1880564078026166 -2.4071427406834216
C -0.7650453519370076 -0.02369980603858718 -3.736176863490881
C -1.158717608483527 0.8346429464800186 0.6082901626742333
O -0.7579210362657334 2.0968398748025185 0.05093007680110112
C -1.7408919142851738 2.60338000382799 -0.7806520680500594
O -1.630153509365268 3.667692958951417 -1.4426892982189785
C -2.8921937112296634 1.7478086157765846 -0.7396860534270167
C -4.109437955295901 1.8666899951142266 -1.4022459588244234
C -5.098777009299793 0.9100971070244033 -1.1476078247720372
C -4.875726528889883 -0.11253854389239541 -0.2011418176579026
C -5.889861535842207 -1.0385793207150091 0.08787972567236173
C -5.692934530760227 -2.0131275952693573 1.069123328548948
C -4.492064996170339 -2.061616597267816 1.7789500415583688
C -3.4678043780062344 -1.1543598812644582 1.4951478622401535
C -3.6279677325752515 -0.19622924364507596 0.4844601231671954
C -2.615667798061312 0.7249022729202033 0.1450294866893922
H 3.2889470194246004 -2.1753671527947525 -1.5004665160663626
H 1.7889869257992872 -1.3183839869145295 -2.162595293728964
H 2.9802688959210206 -0.9482550241473188 1.8769144035826237
H 3.947160161257061 -1.943827864000159 0.7712336747237962
H 3.62184038869819 1.3298064229103237 2.36491993026836
H 5.261518076940941 3.16011963077671 2.1322100933172723
H 7.020330941791137 3.0472783490500017 0.3884428778240375
H 7.138237615383374 1.092267620036871 -1.1309966683194674
H 5.506605344038379 -0.7502589347495073 -0.912827768915684
H 1.3829189782155713 1.0097064571916246 -0.7873402781686879
H 1.4867827617428055 0.8012157532299674 0.954812689978893
H 1.0605947791792933 -2.087980073882018 2.6618524566186488
H -0.6053134905356289 -1.6527528250690837 3.1559909434659845
H 0.5658226712066007 -0.35907582356413165 2.724376909332625
H -0.43626008915184167 -1.0195347847590701 -4.099396185231687
H -1.8713605199442274 0.04411959696516256 -3.7703534598372133
H -0.33685799746341805 0.7585664823967486 -4.394282206644699
H -1.1275576162187133 0.9173647637170689 1.7147353353263073
H -4.287671560435403 2.6757344940385566 -2.099579641706285
H -6.047502011247796 0.9863360379597104 -1.6652937147447102
H -6.838652746617848 -1.0004049846115928 -0.43351331835966045
H -6.481667513546231 -2.7191156946112636 1.2948131606356452
H -4.357739651138222 -2.7990078102985425 2.559017460029252
H -2.579702249407751 -1.1787631192467813 2.0985755583062473
