48
089452
C 1.734290432749221 -4.720246429429192 0.9405236006283656
C 0.5141887032321796 -4.414767792319868 0.490657507630729
C 0.31293681553296226 -3.6742184831398554 -0.801727076664027
N 0.8343993536557373 -2.3064521161025047 -0.7024159361821436
C 1.9982463839629427 -1.9141412783042198 -1.4921281489264753
C 2.56082220741699 -0.6053193645459815 -0.9541129666572432
O 1.5657550358688246 0.3973208880174612 -1.0030217686096683
C 0.4753335200908905 0.17571951981658937 -0.10267512997782284
C -0.7451753369745662 0.8891148546116827 -0.7595737698894391
C -2.0950193887403037 0.664953302829705 -0.10521140955328433
O -2.274728289348834 1.019417537916117 1.0502258989146713
C -3.2549479682125 0.08554804540864352 -0.8914029836219711
C -4.3801293401519334 1.1191042758500922 -1.0106437144708125
C -3.770644384398416 -1.2029651341990075 -0.24147661497901876
C 0.8336086244354174 0.7884721655224816 1.2858425186595697
C 1.2881688582277808 2.228382884582201 1.2114649924885004
C 0.38181598600512656 3.276755460069015 1.4478376816892833
C 0.8038312006608686 4.607113169219927 1.3650846187411825
C 2.132705317737201 4.902407977056668 1.0514604508869103
C 3.0424963894735124 3.867486178139821 0.8215983889814951
C 2.6244631412497497 2.5358557999431883 0.9016095258433127
C 0.14602697942215911 -1.3099928521810953 0.0738001779132123
O -0.7030563944794294 -1.6663993069558165 0.936387382847595
H 2.6227431917779724 -4.4392874762083325 0.38400199422248726
H 1.8483641694550246 -5.257746351847769 1.8763399316855922
H -0.355213515200545 -4.714588347080915 1.0682332952777842
H 0.8171018180203868 -4.230214241608644 -1.6228887500287377
H -0.7710422759838993 -3.6389842795551637 -1.0448906284180703
H 1.6972654632093513 -1.7861780021765186 -2.554327993007324
H 2.783107022448165 -2.6985799988325203 -1.4320258847617071
H 3.411666454603187 -0.28995435082296894 -1.5935031791603258
H 2.953202824039833 -0.7424970679077368 0.0771744611265919
H -0.5616590809636578 1.98258211676695 -0.810486183358347
H -0.7982581691146061 0.5549323209819418 -1.8186142440038708
H -2.925816184106293 -0.17020463547861892 -1.9220630680558042
H -4.788392830085677 1.37657718889894 -0.00917743771533865
H -3.9971880134126017 2.045054187271265 -1.491397189238686
H -5.2034683787585525 0.7176620995459592 -1.6393617784902619
H -4.085338276862244 -1.0191028430065687 0.8084051454945729
H -2.979349349105607 -1.9806014121287363 -0.25453798920522624
H -4.639593415980327 -1.5969646962860253 -0.8102735494148973
H -0.020873544039060953 0.7032725710647513 1.988131453821064
H 1.6441023604816845 0.1900924181309161 1.7554167566721992
H -0.6504013161513097 3.0662382628228224 1.6932623449500495
H 0.10021090243838719 5.40952537960728 1.5445744671989454
H 2.4578640247628973 5.932785497568043 0.9885435604438094
H 4.072518212788374 4.097124900151623 0.5821408695178576
H 3.3430600583235273 1.7459074583239713 0.7252203687547216
