22
089734
O -0.8223149409186082 1.7687007882967807 2.3733474577733387
S -0.6821863093492209 1.9484748642221232 0.8675306532800742
C -2.231606904477859 1.2840825685641415 0.21618994356300478
C -1.9769703240196754 0.2418637700390962 -0.868192775567677
C -1.1201094896524872 -0.9209371069439248 -0.34619610215413665
O -1.1735084395696618 -1.9550603025015634 -1.2984822022575269
C 0.31652989923525404 -0.4823395094923855 -0.10413138731339783
C 1.3861926808821272 -1.367138927994695 -0.3563355157383905
C 2.706978689440705 -0.9717917993819353 -0.13208157231529205
C 2.9822368423334487 0.3029361413901982 0.36014431069967406
C 1.9365306773424722 1.180901317009325 0.6453437765115119
C 0.6066186012310304 0.7929515394504388 0.43600097076315875
H -2.821173275840727 0.8289604443211112 1.0411823448179702
H -2.8251813693679626 2.120459843934613 -0.20904784980410962
H -1.4843576112470225 0.7190354922180897 -1.744386955144657
H -2.960207679761967 -0.1517580182292784 -1.2073236548171677
H -1.5480775940208233 -1.2716241556763275 0.6237970070050799
H -1.1848968196474101 -2.8145011795181922 -0.8009116575094514
H 1.208339447086589 -2.3661716520075977 -0.7315517016154038
H 3.5189234397509157 -1.6568092540699246 -0.33985887667800246
H 4.0067107291008925 0.6074433401407873 0.5312083351711009
H 2.1615297514699927 2.1623217962291186 1.0437554513302991
