32
090177
C -2.734652902639557 -1.860588962373078 -0.2850417382186138
C -1.7320421371714958 -0.9056909230452352 -0.9588385214831283
C -0.8916060608653218 -1.6751510237717753 -1.9941924209855932
C -0.8857288553837688 -0.11563996512376554 0.09672076768647377
C 0.15766871296447804 -1.0007708164127078 0.8457522715380182
C 1.5864535391581596 -0.7918317851729416 0.3306829010662863
C 2.0542801933721853 0.6783513155214193 0.49514553908428854
C 2.8368714030981104 0.8656827262293547 1.8031020956185935
C 0.8838899485935495 1.6903548295599862 0.4162854040641819
C -0.2454051355693567 1.1775234801523053 -0.4991170930006348
P -1.5640850885339022 2.491246907421015 -0.8031808775472054
Br -1.885087834311572 3.4252816067671046 1.2561148106893238
Br -0.3481031351250692 4.156749398137599 -1.780650598203233
H -2.220534547431847 -2.7181912216443322 0.19502605216782257
H -3.3282014580076327 -1.3253783350529076 0.48624298387840253
H -3.4410914762050666 -2.2622450100334213 -1.040686865168227
H -2.3473679078545007 -0.17243242942156925 -1.5223267491039436
H -0.20823968948362623 -0.9942354447837503 -2.5420290510011583
H -0.2964360183746432 -2.4813047365970253 -1.5147171810803717
H -1.5641060076816051 -2.149414759680242 -2.740333798285739
H -1.5993932130625614 0.23256565033135962 0.8778794697255403
H 0.14287453081706936 -0.7411145178247731 1.9262386778446263
H -0.09229804044952744 -2.0779401116967207 0.7872640790876383
H 1.6257097719402056 -1.0634074135892253 -0.7457193510238399
H 2.2738314945732547 -1.491391865808231 0.8557587542060435
H 2.7570871284232314 0.8969239410203892 -0.33999467607005623
H 2.191414446707658 0.6415238239562708 2.6807260884061215
H 3.205501655749336 1.9108435880316361 1.88270704437448
H 3.7130124427637012 0.1825969294476456 1.829393860404099
H 0.47063223091616574 1.8600526295419224 1.4335872514450587
H 1.2758087316646094 2.663998897571826 0.0543033948726442
H 0.20934327740934305 0.9530335983418688 -1.4861025249878967
