45
090470
O -4.200953524758625 -2.395892242965913 -0.6497285113165688
C -4.28455812308348 -1.2006022206702758 -0.25295306186905636
O -3.12666492260672 -0.49200155923875105 0.08319712603873058
C -1.8203359502856462 -1.056359767158149 -0.0076241740641380265
C -0.7392325930846612 -0.04794750565551807 0.414600571335582
O -1.1671523212361892 0.790381569643332 1.466349440542742
C -0.997869786335217 1.4089912870987367 0.20865179914099702
C 0.20149535034741517 2.3159075398532143 0.22030729498092663
C 1.4388202338172977 1.8371240609821686 0.03133952665143252
C 1.667685724806162 0.37368370770515097 -0.26535989201594085
O 3.024231991019829 0.02310060484451223 0.009498678283880858
C 4.101534353544339 0.40413034791681307 -0.8006946989738781
O 3.8983174632582487 1.0788679151794587 -1.8478868770331398
C 5.477092870050664 0.00991776888924648 -0.4263103892144206
C 5.705940634862959 -0.7501047261098194 0.7353887997970563
C 7.005592986149775 -1.1238988935291605 1.091519234432446
C 8.087792008644923 -0.7442209004782463 0.2943751696538132
C 7.872793658253625 0.010296595735547474 -0.8611408862416444
C 6.575336288866145 0.38691169113239915 -1.22230242444056
C 0.7318935450437539 -0.5013287804254866 0.5914436745362386
O 0.8687079365287173 -1.8470508573040452 0.210436153421646
C -5.60527149665868 -0.5438645306510358 -0.14213608938404712
C -5.699282943868113 0.7909642569914563 0.29281263388950185
C -6.946624729075098 1.414381062453597 0.3980663636233353
C -8.110239669168642 0.7143902931276559 0.07124221896450846
C -8.029193688218786 -0.6110183261287303 -0.3618057046039925
C -6.784591854630015 -1.239646297343878 -0.46902903887304054
H -1.762490451491863 -1.9472437083708423 0.6542942464116546
H -1.6242066669161463 -1.3708489775347188 -1.0551224048969734
H -1.9646918631662909 1.7626870802229304 -0.20616288444315758
H 0.05841055907529248 3.3751222751066052 0.40829605796918406
H 2.28260250645131 2.519670722377208 0.07024051868087508
H 1.4412044314535422 0.18429129663832178 -1.3389806952673027
H 4.8829074013487785 -1.0563828469868424 1.3688841488357983
H 7.173522792447197 -1.7086593039966487 1.9867657197003976
H 9.092802232755425 -1.0346564916815315 0.5720148896034868
H 8.712267744928367 0.3039380069623742 -1.4780985200612438
H 6.4328331240684715 0.9719386994138025 -2.1222888249594964
H 1.010165041968312 -0.38982317680876677 1.6672252221687445
H 1.6936395309979668 -2.18955261027093 0.6441233179349922
H -4.811154338580361 1.3540053741837872 0.5513626913803611
H -7.010744572289755 2.441526092595172 0.733397076699384
H -9.074559105153991 1.1989708007267035 0.15348334442514724
H -8.931676983311506 -1.1523922022636517 -0.614827654547454
H -6.746094826768722 -2.267703124207251 -0.806863186896807
