37
090532
O -0.5662562517324321 1.8478751926616344 1.4028330780660208
C 0.43559851603462085 1.1812360198789407 1.025814417773273
N 0.3562948626223271 0.4084940580323659 -0.18312540945121017
C -0.7870006255172859 0.5159298777353551 -1.0993918580120903
C -1.9344341002967935 -0.37496462997994884 -0.6537995710790001
C -3.262252371797686 0.02920771089598985 -0.892903239961194
C -4.330544248525793 -0.7946157254882462 -0.5273412097001087
C -4.088827600154308 -2.027707123481109 0.08042755253084956
C -2.7782978636754465 -2.4410835122712617 0.321462548535737
C -1.7030995517562426 -1.6255189857786656 -0.04775505085808691
C -0.38049059496344756 0.25373197694403143 -2.5761276470652823
O 0.5785909956631449 1.1947821778125023 -2.99324577618718
C 0.10278202205828028 -1.1846058532730663 -2.868526649964314
O 0.35016899504587695 -1.3447761981579798 -4.240653708303584
C 1.6721561429808018 1.1961765434498886 1.8479502564305066
C 2.9201748586172367 0.8511974097706941 1.290372558115036
C 4.076949206514759 0.8726243829100565 2.077296563225153
C 4.006134025564881 1.2458947777439806 3.4222008181828554
C 2.778117733955986 1.6040243441574549 3.9835537781999046
C 1.6163918614414774 1.5826095684117691 3.2023169670247906
H 1.0476790875934405 -0.36032289797097716 -0.3245702439329473
H -1.1433503521767856 1.569190414560926 -1.069023476981272
H -3.4677108375240073 0.9797054189872516 -1.3656824721268361
H -5.349449325735786 -0.47669717922943244 -0.7187789320549374
H -4.9161150451340685 -2.666270589799772 0.3594648406849125
H -2.5905752611999424 -3.402565266025404 0.7839801032349665
H -0.692815588670486 -1.9798850710871037 0.12676831499194682
H -1.288240003675239 0.4187818561663068 -3.1991153086036186
H 1.4127932237596914 1.0188606626615393 -2.4827813943622083
H -0.68614783458519 -1.9104134523824186 -2.582975515790296
H 1.0174993347678227 -1.4341330411405808 -2.286383210174204
H 1.2505255317540425 -0.958698528945036 -4.412290288588271
H 3.013835460026703 0.5875115452225911 0.24436552004624493
H 5.030191055003301 0.6064601520672033 1.640493907495033
H 4.902976209661682 1.2624631188375186 4.027938794049597
H 2.723846194768413 1.8967699259336743 5.025984846675713
H 0.6729021392864569 1.8587309201693294 3.661246097934102
