35
090653
C -0.7310204810186699 -3.491096291241752 0.290110375722458
O -1.0054522886757968 -2.104732480922414 0.46278001162098825
C -0.043714908670579894 -1.0823397300817574 0.3924550313270356
C 1.3156055348816327 -1.3604183390582691 0.15482750563276612
C 2.2610799334540452 -0.3210429129993943 0.07638121061468373
O 3.623365117753201 -0.5681113266461414 -0.15913085066840957
C 4.191893230844718 -1.861192333942767 -0.33957270938535256
C 1.846088025711964 1.0076621181133152 0.2335399709383182
O 2.8125900111567907 2.0223443084467885 0.14353702746013675
C 2.5389015733577285 3.4132104324911254 0.27896371993774877
C 0.489247810573691 1.2884160689394966 0.4725879738838626
C -0.45463465493521327 0.2541641307776694 0.5628598192149469
C -1.9085521659659976 0.601638133302876 0.7899774394956331
C -2.6137598334734675 0.9597132469193137 -0.5311703891187655
C -4.047439564398508 1.4399777705868548 -0.26594099231015433
N -2.6123572471430228 -0.19084349123942815 -1.4388249077259745
H -0.021361204788338233 -3.8401423044203526 1.0696261978437582
H -1.6766162008304792 -4.06213361350414 0.39016519026537416
H -0.31122974601680575 -3.6741279764973847 -0.7215510932797041
H 1.6372030397775073 -2.3830547507957487 0.02858404890641776
H 5.283491052732722 -1.7568171375070913 -0.5064009477646393
H 3.7428308096724066 -2.355540753759837 -1.2268126301638997
H 4.028982659194846 -2.480200239753256 0.5679099480607149
H 2.118621638517486 3.6236183378348783 1.2850991854910827
H 3.484486790209092 3.9814072694378706 0.1634974084313103
H 1.8288440123483718 3.741268579295375 -0.5093524135195504
H 0.1561361495281712 2.311344697682254 0.5880067346102298
H -2.4406363582406336 -0.23618384081477745 1.2909558821720277
H -1.9677819901598301 1.4676975519519808 1.4859303151766547
H -2.0581661355239436 1.795003812381065 -1.0139514458915269
H -4.64102880876355 0.6451590715584999 0.2345718392946932
H -4.542567197577398 1.7080491243825053 -1.2233066586656927
H -4.035400346495716 2.34186920041516 0.3825411943300533
H -3.015614753427601 0.10534027427447726 -2.3574273570498145
H -3.2320335036088266 -0.9399066056069997 -1.0514656348874103
