56
090873
C 3.769346952633483 -3.051568469923469 0.456960339567015
O 2.845095905447064 -2.0839292314212243 0.009189165818979092
C 3.058193913602946 -0.8421933182971514 0.6633471168674567
C 1.7080057749700672 -0.1687312931640619 0.9303516433334115
C 0.892560006541806 -0.009483353518663546 -0.3652113559341756
N -0.294817163237708 0.8344734111395631 -0.12885353558327123
C -1.5985975525786837 0.4669774118163921 -0.15006626393178446
C -2.091619317054055 -0.8972256594888659 -0.4264172432799485
C -2.839921719214624 -1.5871454586180727 0.5404760569687935
C -3.3215472907768464 -2.87181307756424 0.271028441557909
C -3.0612589337532516 -3.4726744093748443 -0.9639820990248514
C -2.321425204255366 -2.788387977011348 -1.9326960994069011
C -1.8399534403422904 -1.50283040538581 -1.667659376461751
C -2.364065419652883 1.564678331350941 0.23422123808229697
C -3.8336657738917745 1.666280051000626 0.3650714488255793
C -4.698771693797988 0.9550654307831672 -0.48659930537327395
C -6.084592797548292 1.0774694076293514 -0.3468462806522422
C -6.618918808709418 1.9186539924858652 0.6320776139567756
C -5.767865681739323 2.6457756275790274 1.4677357379260758
C -4.381309571992043 2.52639445869867 1.331447634294574
O -1.5469787445096106 2.5636988504280636 0.4815842932520322
C -0.3290756242775003 2.1293121833990085 0.2615635093927816
O 0.6933889555294548 2.8489629636722364 0.4094995979549021
C 1.7196989455607938 0.506684542907257 -1.583915062905851
O 1.6968368213362495 -0.4405082978226982 -2.6243567519261197
C 3.1825439857781856 0.9219913206784476 -1.2744442556028033
O 3.2392524120418154 2.2634574644769443 -0.8012620330964206
C 4.113299716009164 2.339120600449114 0.25595538426235054
O 4.452556226102882 3.4226836835439776 0.8000172337262443
N 4.595517820763057 1.0735107968740947 0.6560380171998169
C 5.86361166071507 0.8680699935506032 1.3471771385473794
C 3.9547642858566685 0.0760908003651441 -0.2021324810083552
H 3.5673146768888575 -3.3248899421909215 1.5158187074966962
H 3.6491617196312855 -3.9671095212236134 -0.1575718007371007
H 4.819137187292362 -2.7015511098022613 0.3417430140017986
H 3.53568986346055 -0.9755013431623456 1.665901674045205
H 1.127084238791337 -0.7876505733831979 1.6492994929933373
H 1.8802509686104363 0.8152217487685167 1.4151621417620408
H 0.5486716163489339 -1.035983228830378 -0.6114091943287551
H -3.0475892819781167 -1.1312197113924953 1.500826610845656
H -3.896813050206503 -3.401429040189233 1.0193614126615327
H -3.4346461687445955 -4.467204046621987 -1.1710815788906415
H -2.1240409306943793 -3.2527257707350916 -2.8902081441428935
H -1.2775353927461275 -0.9771654312487664 -2.429690926684126
H -4.31007157713216 0.3255557987004908 -1.2752947609170133
H -6.744671926088398 0.5262461357227071 -1.0041360054306496
H -7.6919334525612495 2.0132422408626285 0.7376132772190084
H -6.182435589567397 3.303067553373631 2.221125787457711
H -3.7358367042223213 3.0956357030518102 1.9892602594445594
H 1.2177055237451369 1.4105023479196377 -1.9934681241566456
H 2.233974815326416 -1.2218641735465672 -2.332574613008733
H 3.7634635800295073 0.8905343467041751 -2.223659671948307
H 5.935942529565856 1.5540046506475627 2.2179952796096654
H 6.705187465194993 1.0660181380567089 0.6496802047529202
H 5.932037636574407 -0.17851491001087014 1.712675529123616
H 4.739663606924112 -0.5300802327081908 -0.7066680385155087
