93
091086
C 7.1457070107508285 -4.0525622063581475 1.754017062026368
C 5.954266332363855 -3.1784236409941906 1.4636812879654304
C 5.280236267012255 -3.3806811990630408 0.3029307633159405
C 4.151205878080931 -2.5153469502277668 -0.21959951303833963
C 2.779695919068039 -2.851192976015928 0.3900381106206831
C 1.7927589198036458 -1.7204103364266383 0.17159145170946954
C 2.047150005040916 -0.4840154633627902 0.6387844907784339
C 1.0446406315323993 0.6202371672088263 0.3559693067994182
C 1.5336959210476246 2.0035710768177273 0.8793133751534589
C 2.896574196980691 2.460642894647604 0.3590014970638066
C 3.457531139153792 1.9175894674583178 -0.9387458153518283
C 3.6009440613966532 3.3216465649921583 1.1300290703505016
C 5.112051726637295 3.4182261384020447 1.1228411113741943
C 5.680016532038912 2.120401735752645 1.648253046100117
C 5.331376945359563 1.7062414145875524 2.8704238903266086
C 5.459247853194635 0.29363815760091055 3.2509834770903594
O 5.152641691098564 -0.0643837235718208 4.421776598479308
C 5.902672991430674 -0.7050759254471145 2.247772242260719
C 6.429822971147694 -0.26291511220179675 1.0871563053512059
C 6.393744340703439 1.1806329889563438 0.7501685853635037
O 6.959097192341215 1.6065386645108177 -0.2992391537286494
C 5.5432238305133605 -2.156405352966908 2.514643183295624
C -0.38531826007745423 0.1768706111811648 0.8592378346724164
C -0.4598316466596146 0.37746016689393835 2.375637785655012
O 0.13952131306202178 -0.35157342480110143 3.1555715225528442
C -1.4510015760023587 1.1100449313588472 0.2039487148545171
C -2.86198747955953 0.5493479868856015 0.3874434244326469
C -3.9647385825009764 1.5320932400115501 0.07445758781338076
C -5.227380413916385 1.115633979876071 0.2658203966923443
C -6.414173583973833 2.012690428246694 0.02818882830359236
C -7.2680210824268965 1.5779825699904422 -1.1765780199011209
C -6.729346931687475 2.1159964192116107 -2.482850777415805
C -6.333730387748692 1.367063937762399 -3.540290880579345
C -5.907384039824491 2.093331432961765 -4.79029908019739
C -6.2476576083738395 -0.15040039772266509 -3.500331459270663
C -5.127080601154748 -0.5881477072204431 -2.5892009904203395
C -3.880465021393969 -0.1927974212634794 -2.8153797405363803
C -2.803782193072427 -0.5571273425278466 -1.893728356110224
O -1.6282957632271577 -0.5908292206018012 -2.3519530853066017
C -3.0842829849831 -0.7753658359947703 -0.396598888450033
C -2.0968476400257803 -1.831786269730842 0.18081903501664587
C -0.6407245077800858 -1.373864319772245 0.5285958372559107
C 0.42663158299367765 -1.9847231365536686 -0.4190566531869646
C -4.602552889424395 -1.2782755757519983 -0.16745594096463545
C -5.435612685068837 -0.3153181963624686 0.725477350338609
C -5.377119618608903 -1.4768907992504217 -1.4479900429932366
O -6.274991144927095 -2.363899314388712 -1.5099520475784778
H 7.855003566547358 -4.038854575896485 0.8978391177897913
H 7.699146878222328 -3.7038857142350166 2.653562003458955
H 6.81957782044011 -5.099641282106965 1.9450051593256683
H 5.649591339470657 -4.148477319885887 -0.37129228284912336
H 4.405761966003195 -1.4546046531759986 -0.08446368505941011
H 4.080315115175481 -2.6684500349100815 -1.3148254067949254
H 2.8397690396509407 -3.0589922339743887 1.4732365154764266
H 2.409694983465782 -3.790999861869581 -0.07836409783197286
H 2.956804513626216 -0.290394576575501 1.2085934507408789
H 0.9804045664529565 0.7065869619321717 -0.7493742254793587
H 1.5991235057871678 1.9479571221024914 1.9876021384078764
H 0.7931751361477335 2.787631335673336 0.6193871564815893
H 3.916235820179347 0.9206430260931553 -0.78331089480174
H 4.22619756013016 2.5856102730071515 -1.375053605916212
H 2.645119514553288 1.8460525579713987 -1.7043495202602892
H 3.1013718468535827 3.766540639955536 1.991402148091407
H 5.491598676619017 3.671266171638752 0.11416842245702562
H 5.413562349327512 4.251973249414054 1.7920287123358678
H 4.806565909734741 2.3733398996117807 3.54161746681513
H 6.811715005681353 -0.9586959853226038 0.34376750493991337
H 5.978242992585294 -2.440537455417889 3.502212417326769
H 4.445765916922338 -2.2011565209134067 2.6695031349235046
H -1.0785180189236028 1.166721798594684 2.7921688588679006
H -1.2444546651462383 1.2922375266777832 -0.8682911977194462
H -1.407100748849856 2.1156364653099473 0.6725592346330558
H -2.9707487492249856 0.32836286441449225 1.4756731514979395
H -3.7430907240549938 2.533958859141898 -0.2807732089785914
H -6.0976079022886225 3.0758440842572368 -0.07076885549043424
H -7.042924615122162 1.9612018200781192 0.9420048695524543
H -7.409463082755903 0.4789349688670961 -1.18687761634724
H -8.279602699560371 2.0153745832154017 -1.0422731541334285
H -6.738919689906626 3.199948996249469 -2.585513503450886
H -5.0502257152418055 2.7606013768993223 -4.563778244683926
H -6.752359146089352 2.699475537727649 -5.169788305677886
H -5.593019415728697 1.3900857512084952 -5.588706449002611
H -6.0563009833047285 -0.5633066650178091 -4.513213956801288
H -7.2266475144843705 -0.5670505250699395 -3.1846948554018515
H -3.6340035488715134 0.3814658409330458 -3.7006965203706548
H -2.0735017668437212 -2.7111700329849526 -0.5003583480779048
H -2.52810727720228 -2.210236521311337 1.1343400478043142
H -0.43168168276566 -1.943560944409356 1.462474556904055
H 0.2599617366740336 -3.078179646027918 -0.532290080068055
H 0.37859860253155986 -1.5389217946321367 -1.4330823707435612
H -4.607974350616975 -2.261087911048586 0.3518519838634005
H -6.51347458215721 -0.5879739739853225 0.7261890713193769
H -5.095706093977122 -0.41674360893973 1.779630534944468
