36
091960
C -5.377878783751159 -0.500705248078106 -0.18231661107811573
C -4.710139044956346 0.7603759010964478 0.2650009709351158
O -5.070737847562842 1.834147012540695 -0.18943629640051945
S -3.3835222053859146 0.7095490479570693 1.473619037706399
C -2.0763426633679694 0.5244184599036286 0.21008968404497375
C -0.684010036568552 0.4290656222053615 0.860594918585609
C -0.25371791321118853 1.7750365814169726 1.4863460842056475
N 0.29884019652364796 -0.11365687590746837 -0.11537224072835908
C 0.6970008700069199 0.8095397201376454 -1.191885134403895
C 2.115980846025079 1.2652485961524946 -0.9091554526383987
C 2.719600125826267 0.15074917123128012 -0.07056859285926417
C 3.5250930543359815 -0.8612851036537996 -0.888884873442655
C 3.1916805461086075 -2.211282966862496 -0.2859331945332323
C 1.750148390991343 -2.091087224951107 0.1758253899857268
C 1.5364327738772 -0.6135559243627436 0.5173788137601785
H -5.248475466007969 -0.6219040458568482 -1.2781194640235352
H -6.460936462241441 -0.4549436676955975 0.056593981286402015
H -4.9330958316944225 -1.3790274536059077 0.33059511701727284
H -2.1239636775193254 1.3834957096609382 -0.4921313586086227
H -2.2732169744777693 -0.40772247366114267 -0.36290207834243665
H -0.7802198113069692 -0.3063023156315173 1.6919776297257096
H -0.9187504017989178 2.0257938158048963 2.3390997584911313
H -0.3130137482315953 2.6055460372442267 0.7533624233583628
H 0.7818431053469332 1.7183710122347253 1.8790496193236186
H 0.683380349244628 0.24852417225550097 -2.151314748582092
H 0.015953647399413597 1.6773851586375967 -1.3109878581493517
H 2.681366731790211 1.4594589414660062 -1.8468496005994248
H 2.089467335515737 2.20337929310151 -0.31310740450843527
H 3.3573481306374804 0.5705050259342669 0.7402252518909127
H 3.2117054355297134 -0.8599631302228051 -1.9571861610869166
H 4.615268021627182 -0.6530104790186245 -0.8294957628393067
H 3.3161530904919663 -3.0305109153156966 -1.0269148625414088
H 3.8508143880849914 -2.4020972633990723 0.5899591773341387
H 1.0757106049878185 -2.40801319521596 -0.6511300090425668
H 1.560954103252741 -2.74027790219293 1.0582353545168683
H 1.5332791204785146 -0.4952430933494421 1.6257384922404707
