56
092804
C -6.856955682461362 -1.1650283519645155 0.11093860916576673
C -5.506955045255648 -1.5027171830681803 -0.5365592918258623
C -5.641138562362184 -1.4629710566602658 -2.0651035838194707
C -4.410255473570729 -0.5442705946328955 -0.009360254274463818
C -2.978635798306111 -0.9170590035705638 -0.4878133990565326
N -2.6545029637339748 -0.21225625851718552 -1.7399462917753516
C -1.301193818627872 -0.07120236088072213 -2.1916628997540517
O -1.0693337235286593 0.30141770451853406 -3.373249488539934
C -0.17451961323788984 -0.43501573245373937 -1.264500205741857
C 1.090717069727746 0.4195889668515405 -1.4367241083394822
C 1.5324637972318327 0.8277839359001847 -0.012293309719117575
O 2.791842673899962 0.2576208916290083 0.36525253848432854
C 3.0659472892788386 -1.115152292318689 0.45826740411366823
O 2.1631165967486057 -1.9641089092851525 0.2231650311585631
C 4.422674768411535 -1.5645477899661953 0.8384296793640039
C 4.72314450743377 -2.935852609226047 0.9441500763109301
C 6.008682479444629 -3.3523557112636473 1.3040103161100343
C 7.005199427438038 -2.4081956254607153 1.5613516134167544
C 6.71838583464383 -1.0450882787270728 1.4593506874420175
C 5.434671705089595 -0.6226735598815274 1.099917127865324
C 1.5918727784121605 2.315974983562222 0.1445441423214127
C 2.4763072972772546 3.2196688807676037 -0.4504060880158908
C 2.33209585626053 4.5869903134990935 -0.16105259078875878
C 1.3147172486712502 5.024186291996997 0.7104100532708703
C 0.4384468810880699 4.095594120200461 1.2960281499840707
C 0.6065804615728313 2.745559647401973 0.9887239925694932
N -0.16245690570482033 1.6712697705129342 1.4821886511436984
C 0.38047406888969065 0.4222337484680211 0.9474115706644777
N -0.6007373830826392 -0.24918081311074475 0.11329031492860765
C -1.9182335747215136 -0.6109687000901842 0.5508364621119212
O -2.1549457613088117 -0.7455533733685579 1.7823143766632106
H -6.785507310789769 -1.245582320344703 1.2166608399390488
H -7.170696180930626 -0.13235791617415585 -0.15428070847582376
H -7.638192294506312 -1.876734298628418 -0.2319802623608334
H -5.244461129089183 -2.5420657699168157 -0.2381243015555747
H -4.719923645821729 -1.851310153852704 -2.546681968178746
H -6.481280440467248 -2.1112092487950753 -2.39413461187785
H -5.834623741280953 -0.42648382715244254 -2.415421006992182
H -4.460408716245292 -0.5795808947451744 1.0998953681157158
H -4.64748979275969 0.5048140856738278 -0.29452521208002247
H -2.921709590141826 -2.0109536084304147 -0.6770939032272326
H -3.413903401583961 0.167405365410877 -2.348166052594886
H 0.0705895685880199 -1.5077886658735247 -1.4211861017020493
H 1.8839357718384442 -0.16319776746092501 -1.9531499298754094
H 0.8813265082369286 1.3188315567956606 -2.0588635976905323
H 3.9667390517558574 -3.685815231549578 0.7493574823081935
H 6.232193788292639 -4.408445670857849 1.3833309381129246
H 7.999507460133462 -2.732776910817109 1.8396990134050022
H 7.491563145779006 -0.31437217157262626 1.6589203180468417
H 5.236412569977189 0.43935601917237366 1.027073828894521
H 3.2531645250619006 2.874894944281701 -1.120427101285444
H 3.0043572282443196 5.306663266476245 -0.6096930169495265
H 1.2084091063722338 6.078550633136546 0.9299216500929417
H -0.345207239929382 4.419770301179885 1.968303021423153
H -0.9497424096347064 1.7527846059401702 2.163285722833985
H 0.7174707332827397 -0.23808737275774228 1.7753703062354091
