26
092841
C -2.7135110689275486 -1.2120580254284952 -0.24244590184979561
C -2.033859224090284 -0.6154244745252256 1.000451201973127
O -2.9824308511125373 -0.10496769270465092 1.9101086681600947
C -1.0047849497647823 0.4421577459240373 0.6017019878821732
C -1.3657925385278655 1.798055698190904 0.6293922482259483
O -0.49832151834145216 2.7459186297647165 0.3177374343375332
C 0.7405675399616001 2.499243664971261 -0.07871788492726821
O 1.4985944975437966 3.4831509450750233 -0.2752552938343519
C 1.193328744938974 1.1665841735834923 -0.23931448365166663
C 2.4902148418652588 0.8320411151677449 -0.7342370344105644
O 3.3903285849919453 1.7650747773868625 -1.2578048231971377
C 2.906866940342467 -0.4997348334958228 -0.7419862604639441
C 2.047851727384473 -1.5207822127551318 -0.3563092106973757
O 2.489840527628687 -2.8415794528470704 -0.4071115162737816
C 0.7521111033137713 -1.2200489489360604 0.06412785841491904
C 0.30408737925069435 0.11780498026187897 0.1450361519889422
H -3.462405212155586 -1.9715353127864004 0.0668683367586384
H -1.9665962440352363 -1.7044416040950978 -0.8994877853627099
H -3.2270760505599516 -0.4172778040238656 -0.8249309102805888
H -1.5265152950596914 -1.4362557419279727 1.544696728413665
H -3.710224110564628 0.3373889727627466 1.3996006675600547
H -2.3597794339042673 2.1052815221220533 0.920506737224557
H 3.1288614386010978 2.6650697900753504 -1.6319919240254654
H 3.9006224026623624 -0.7475970979443498 -1.0949055165538406
H 1.891088101213315 -3.613481566182729 -0.13763193678707028
H 0.11693266734539075 -2.0525872476331974 0.3219024613759077
