88
093675
C 0.9494993786294338 -3.7564108801301797 2.2037884240086325
C -0.17585336169979376 -3.649555596919693 1.165376233218356
C 0.08366250491486676 -2.73902941905133 -0.08116018866380577
C 1.4167766904671424 -3.029851302226147 -0.7604759075990304
O 1.4446296065596627 -3.1514085667151104 -2.0154975543601865
O 2.598365693625443 -3.1564508769735435 -0.017970199256562944
C 3.931604308514922 -3.2585597525391647 -0.5373051638236379
C 4.8815070058138765 -3.2979836083882947 0.6668842146144327
C 4.278178846610973 -2.031393385791295 -1.4027972554169819
C 4.09867527410632 -4.556427109342557 -1.3474570996910222
C -0.3493984706119417 -1.1941827166142622 0.024343799839675058
C -1.9193399860512526 -1.1255391999031474 0.22672639974688774
S -3.0155343328745547 -1.8439226402311646 -1.0156757183086618
O -3.040260607251453 -3.34381440836397 -0.9090909387415594
O -2.6336290282597687 -1.463794531383594 -2.4185117409955015
C -4.636147960270791 -1.2368911120503816 -0.6881594070567264
C -5.139594033604881 -0.1345933550017499 -1.3948755282497793
C -6.409176161264559 0.37179689494398654 -1.0983649072600994
C -7.192909285582411 -0.22439246390779088 -0.09672097009597881
C -8.53802657689006 0.3370385258519421 0.2556683496412071
C -6.680287018240794 -1.3163258041869057 0.6200415688802757
C -5.4099296210718295 -1.8209903459032049 0.32423200727500573
C 0.08286457530343712 -0.4507264435388208 -1.3025318416889353
C -0.07200155209327674 1.0805953165816604 -1.5139474766126861
C -1.4225368472164421 1.7439137740527326 -1.2125193639624083
C -1.5601052233028885 3.140173240768018 -1.8570226251300774
C -0.38491536356629685 4.107064680226079 -1.5997334096641047
C -0.19635282290066886 4.470929524575034 -0.11313279105301731
C 1.060827148831084 5.334929973630943 0.1071457514780361
C 2.360510253681274 4.500708016752629 0.14174763726472775
C 2.804396558291486 4.1598976214046655 1.5784073361450446
C 3.8874791899356356 3.053723188843489 1.6091758439835562
C 3.348334945887065 1.668568795143547 2.021121903821438
C 2.253165207089253 1.1620321248727516 1.0721843169910985
C 1.7858876970158617 -0.27085070539599393 1.3988715744922524
C 0.2501870563394514 -0.48093531306040466 1.2927846807387873
H 0.5302170220392485 -4.114613626260105 3.1679472063217204
H 1.7073976500995864 -4.498579780342838 1.875258094023998
H 1.4492764299506897 -2.789721993669557 2.3842153769401095
H -0.3730344365955087 -4.684211547533694 0.8018426713003257
H -1.1020016516974793 -3.3511109641696284 1.6923630454826804
H -0.6221759284680296 -3.1545635003837256 -0.8247990671018872
H 5.941511818779369 -3.359423718867581 0.3372109219164587
H 4.655062220866676 -4.177177663285784 1.3056559914070083
H 4.755386877785746 -2.3832083932366923 1.284143341858281
H 4.116360273112573 -1.0932958992512378 -0.8322171462833718
H 3.656256509144162 -1.9941399404933762 -2.321979082170923
H 5.343691879557034 -2.068803431637589 -1.718545843882119
H 3.494610914687845 -4.537403935759574 -2.277960661459172
H 5.160436854810883 -4.697897953593015 -1.6427437438607357
H 3.7795116015314245 -5.432788783842934 -0.7425437074320677
H -2.2557742851701454 -0.09248591757768772 0.38899894335478313
H -2.1991039964254018 -1.5975790090224016 1.1868852621490513
H -4.551000759586804 0.3395647203061173 -2.1699990884234506
H -6.77459172447533 1.2326692907489616 -1.6467197977885355
H -8.453035080277418 0.9557089115101761 1.174516596181089
H -8.934650431923982 0.9713147355763717 -0.566083685029446
H -9.259911498645685 -0.4886169427721597 0.4367074454330824
H -7.261759817509695 -1.7716530915857363 1.4121348888681864
H -5.027560757306939 -2.6597083304201843 0.8937247091366867
H 1.174323080725891 -0.6053513191684877 -1.4287734128158256
H -0.3544216934065608 -0.9677284052474363 -2.1762823675166785
H 0.7000450227739539 1.6142111768672462 -0.9481393734938037
H 0.1696268462203021 1.269178155660864 -2.5849897019245702
H -1.5437416615527704 1.8642242801993754 -0.11799650003078671
H -2.24231387090436 1.1103506571096946 -1.606297642033268
H -1.6639564263235993 3.0115058418097527 -2.9567612413780844
H -2.5022222596809898 3.6093073869956585 -1.4970236854835717
H 0.5487851590694439 3.6850987866444407 -2.024814119237808
H -0.5881466246578534 5.042836077159866 -2.1651651114460355
H -1.0881387877974114 5.045107937396538 0.22159436481923123
H -0.13170865717842456 3.5623441376613214 0.5192025929375805
H 0.9483648932634593 5.9080980353393135 1.0540995724539863
H 1.132057951143021 6.090731119272237 -0.7063201742273421
H 2.242350588443843 3.5741869439985785 -0.4550573456572531
H 3.172647573929552 5.084144861242272 -0.34044828884606315
H 3.2230152784161783 5.082956408943857 2.0364524531264143
H 1.9297645368342533 3.870812369870056 2.199595520340785
H 4.666460356482095 3.3434602540941043 2.349833630787181
H 4.405567464705397 2.976207810857831 0.626164953924864
H 4.194716058152157 0.9461174800228435 2.0202103795453223
H 2.9467418863245767 1.7272471954901112 3.0580020250524953
H 2.6527982235511605 1.1817552087211878 0.03424092227618327
H 1.4036917895489307 1.8651026992845965 1.1497379997195507
H 2.086085707751314 -0.5148578294333328 2.443550605004108
H 2.3306490286479655 -0.9656814812374329 0.7486234795993282
H -0.2594007776866783 0.49509206226072944 1.4345972658195245
H -0.06931405994118986 -1.0560732262806716 2.188600573234134
