24
094029
C -2.4497009862652552 0.5403318583447417 -0.5163289881793425
C -1.1476514976353906 -0.1920948674475749 -0.3458298268551116
C -1.0740181049544733 -1.517534361917878 -0.35856987244200444
C 0.2958825185695169 -2.0084434884600433 -0.05960574240504329
C 1.1661928341946914 -0.7510850604002872 -0.1956569410641051
C 2.3458263129087906 -0.7539450065761947 0.7462366949081486
O 3.210464290834348 0.10196477342431506 0.6471803422452154
C 0.18007960265829034 0.4483799898422721 -0.03177598945474812
C 0.1366565821808341 1.0108348407211964 1.4069594457638026
C 0.5124197870977816 1.5710418611742005 -1.0338304588352467
H -2.8504054953645475 0.3547216076124945 -1.5347791018826829
H -3.1832854849526746 0.18097759437466698 0.23578800117233664
H -2.316204324048976 1.6322538490440817 -0.37919883431090773
H -1.9319220534753412 -2.1684272271323186 -0.49719844156032644
H 0.599444384463485 -2.7936352017685087 -0.7850283013070788
H 0.308855999822136 -2.4173411746033313 0.9742450350459081
H 1.5748039394430995 -0.7576942136136314 -1.2328059730346583
H 2.44859510239245 -1.5219959564021273 1.5062573674445405
H -0.6740384306993548 1.7635139197310357 1.5097415318377838
H 1.0940365454728496 1.5112057774759005 1.6645139855813373
H -0.04878854095463497 0.19677887916833883 2.140865507345466
H 0.41646584252276425 1.2062890801075332 -2.079459575218429
H -0.16764561114831672 2.4388888193646796 -0.9029047334250403
H 1.553936786937927 1.925013707936438 -0.8788151313698143
