81
094329
O 3.5526849469707438 -0.22345491172105192 -0.3743448091185443
C 4.604582357570411 0.46969338021931656 -0.31869160731372487
N 4.528546681469864 1.9035656194297137 -0.2868638623921734
C 3.3049080361170984 2.6508620185839438 -0.20295646588949903
C 2.2195271129947622 2.209203101421346 0.5742356126208705
C 1.041374388647283 2.9723512875397513 0.6292811542006365
C -0.11208257141353255 2.502065186091785 1.4321652930253217
C -1.380752381828359 3.0486267993806324 1.4883749979709415
N -2.0809486977396032 2.282164185880123 2.3398411763139446
C -3.494088505403895 2.41913606594308 2.6748456247141146
C -4.334782198805644 1.4963166860694372 1.793099210378847
N -5.760795363692784 1.6743816408249426 2.061376961552468
C -6.720893894922828 0.7880037978593629 1.4736037361589776
C -7.24348718502213 -0.28356637883339303 2.2259884505595045
C -8.132771907163141 -1.1797808193118478 1.6171423139251675
N -8.500283908796689 -1.0113171402087944 0.3208768804975162
C -8.042759630681626 0.027576252298307326 -0.4248493458015147
C -8.467910573410043 0.16844961447180978 -1.7507108760054988
C -8.017826801377751 1.2429439522097747 -2.5212012041597442
C -7.143929558530256 2.182711279878658 -1.9701030124011347
C -6.7069930945406195 2.0491303593394607 -0.6489936065192703
C -7.141960402693592 0.9644027612352183 0.1370903481740694
C -8.633873771453588 -2.3561688153837532 2.400643039273691
C -9.044672201231398 -1.925165409531273 3.8183312755420813
C -8.04562673741267 -0.9578915968868286 4.509273148360829
C -6.828870193881211 -0.5668015513836281 3.65011773260418
N -1.2985265574598248 1.3075606650201368 2.7717453320309415
N -0.09050430450719772 1.4188575588971835 2.2378674693149416
C 0.9862150336788006 4.182713086915209 -0.080112567113968
C 2.0957664474990896 4.605198779962514 -0.8130878397934506
N 3.2172634148385417 3.8407410047059596 -0.855088055618145
N 5.8897608624524596 -0.16810913006856634 -0.3597086300355817
C 6.066167885118702 -1.5926784351256928 -0.32331685594099363
C 5.327847180154721 -2.4039543177682154 0.5669788399505196
C 5.546312278573979 -3.794931356869913 0.6196889577254728
C 6.510830139686417 -4.394421123753929 -0.2033177808531085
C 7.237197204160944 -3.5756050621828486 -1.0640375254345977
C 7.026591884136748 -2.212873058165124 -1.136894170439077
C 7.934353176167024 -1.592032533055512 -2.1739933117875867
C 7.1532802653946375 -0.9595762681124317 -3.337180548088742
C 8.060788600179015 -0.6153288666309477 -4.544511535414929
C 9.449866761287653 -1.2899306572128721 -4.519375145538631
C 9.390333052823236 -2.720655237081074 -3.9742885469227884
N 8.704811431793587 -2.7336316290706644 -2.683695320318981
C 8.264396046348523 -3.9110009239907115 -2.018393632857878
O 8.691147712242051 -5.070064267800056 -2.26885396830795
H 5.409282204435561 2.441096223189436 -0.4558647129346838
H 2.296336755236651 1.2935496449796824 1.144371404465056
H -1.7703203713809135 3.905821420286581 0.9543130333063575
H -3.8139947426671013 3.4744722376210118 2.5278879073563485
H -3.647817256835869 2.155566266180097 3.7441704347375677
H -4.051856476377594 0.440289298220064 1.9950703788536306
H -4.128417012021279 1.717627606198528 0.7244252656046374
H -6.0820201761448285 2.325231628428618 2.813043811627385
H -9.150452595869103 -0.5521327934523471 -2.1837683500911806
H -8.350643247692924 1.349565623297949 -3.545862830386624
H -6.805129544110529 3.0192112043006243 -2.5674489723568734
H -6.045180152631143 2.8051781466283163 -0.24742337815987478
H -9.50390881660843 -2.8199589885960874 1.8882489815779349
H -7.824122176534843 -3.1151642708788816 2.4625136642222487
H -9.174963768275212 -2.8346373489371524 4.443043855871117
H -10.038982618667784 -1.4299836813691693 3.7587348734694865
H -8.587850129643389 -0.026863651953778548 4.78775926461694
H -7.6816741405425155 -1.4130789368636443 5.456540784109031
H -6.096477507380404 -1.4029814583918068 3.6470865699696717
H -6.333332768630957 0.3079226475387968 4.119464151802965
H 0.10365600263363997 4.807275103669322 -0.06025434189363249
H 2.0647849660500763 5.5430026043509 -1.3516097351588938
H 6.730893431960169 0.4317386135556695 -0.5194603088835854
H 4.602053817078734 -1.963056782355509 1.236155426476824
H 4.971809413872482 -4.403427854065459 1.3061429696814166
H 6.684579449585694 -5.4626716842457785 -0.16745149407122753
H 8.617908665074735 -0.8527337728616895 -1.7022280054240204
H 6.3688282343269025 -1.6734936621797611 -3.673618550459714
H 6.637950891532952 -0.03954887349861042 -2.992046577102178
H 7.534711298767577 -0.9085419264477793 -5.479561048134959
H 8.208835363484052 0.48593824190376295 -4.58932004572834
H 9.88033448963918 -1.297688211766401 -5.544110291718219
H 10.130490716923443 -0.692291242906924 -3.87357557489546
H 8.842636340243732 -3.3682056596655077 -4.694175566541745
H 10.421839002831302 -3.114741303941614 -3.849190324634929
