36
095548
C -2.864618084326829 0.18318630051896687 -1.0745279581283553
C -1.7816135508248687 1.1150548037692654 -0.5312402879863733
C -0.9436905831887319 1.7828222939076341 -1.644153545227859
C 0.2615410806562902 0.956067775866379 -2.1424569086537675
O -0.14769415729217714 -0.34281063439311116 -2.5546322714327583
C 0.4925475165987693 -1.2930054233197283 -1.794438760190826
O 0.28486278450019914 -2.52904857947203 -1.9133298202927371
N 1.391068006016207 -0.7319150065289305 -0.8573236239556563
C 1.839239840443457 -1.4005323452518759 0.3642378314680382
C 0.792550143393278 -1.2745522324593541 1.4388557009808844
C 0.8619290678340882 -0.23250899832396396 2.37844086920423
C -0.15151264866368722 -0.07072750109189374 3.327799432733112
C -1.2439650538598666 -0.9437920427607086 3.343303290195977
Cl -2.5199147860675835 -0.7327048830519454 4.527982387449966
C -1.3207561618371362 -1.981824700557319 2.4093318723466397
C -0.3083178596566941 -2.1466627425683726 1.4595751114302344
C 1.3453336092133599 0.7186361004226735 -1.0389330071839247
C 2.6925690375022837 1.2258867467991166 -1.466477452457465
O 3.334266823548564 0.6387311874597944 -2.37924834656439
O 3.220157943864573 2.367968500176317 -0.872637657319968
H -3.4822645771471756 -0.1916600307873182 -0.2311678558611789
H -2.4206648402091844 -0.6923944145959695 -1.5878577459722807
H -3.527400264644883 0.7274727773318531 -1.7801765157392235
H -2.287890496741413 1.915571912765089 0.05060656880567946
H -1.141349456116485 0.5551465646561826 0.17939951984477878
H -1.5964490530997193 2.0310638864133694 -2.5093188789560466
H -0.5549411157927636 2.7505770765898228 -1.2582157478073939
H 0.6970312620032768 1.480851391606909 -3.0221386157501926
H 2.798306539346725 -0.950128130262156 0.7002183592635062
H 2.042215583432014 -2.4730796611568704 0.1543701548730333
H 1.6930689788350433 0.46170002583188857 2.367568246383059
H -0.0903634006872124 0.737558387834983 4.045282826270335
H -2.1667389383901634 -2.657200541889864 2.41427091187221
H -0.38751269282905126 -2.947593981485025 0.7357193727676605
H 1.0683524386898104 1.2130221895632938 -0.08318832674378808
H 4.122617065497688 2.7308239284428977 -1.1554991296651596
