38
095987
C -4.0155717649018206 -1.691857682095369 -0.08350427255398712
C -2.669352234303898 -1.0692721683664006 0.32707787693808227
C -1.8113150852575626 -2.1421203407480185 1.0196559417166695
C -1.9168918373996957 -0.44340140398739053 -0.8889437079021889
C -2.727042985074288 0.6720882080608216 -1.6075909550275864
C -2.8229236999180376 1.961997892112413 -0.7615886019411185
N -1.5017311870476922 2.3901380334636215 -0.2940297009225796
C -0.4710389616524933 1.416325944959586 -0.11970270312248588
C 0.8452268060886297 1.6307116347828317 0.2151098651028509
C 1.470080840215606 2.9022858750833374 0.4712306265926091
N 1.9712662017099987 3.9249511147908147 0.6762226080281077
C 1.4435625628751876 0.37934284581417776 0.05645418918651484
C 2.869684029064952 0.025681460597254093 0.2438445912338693
C 3.4280575034907406 -1.0289505934368781 -0.500542143751482
C 4.769820788239036 -1.38366856741115 -0.3303865267205215
C 5.56416730912832 -0.6979259100351045 0.591042102547071
C 5.016139723157977 0.33939724336319094 1.348764849678796
C 3.674958485832918 0.6985807190854287 1.181636536532514
N 0.5126869037226951 -0.5115726428278342 -0.36228731208753573
N -0.6402936980748629 0.1323233131108562 -0.45631996943871334
H -4.750858601001808 -0.9044500948586521 -0.34597000427179914
H -4.456910291211063 -2.263629272397448 0.7607114355003674
H -3.8837243048041703 -2.3790366634685443 -0.9465526418691929
H -2.8736891831060007 -0.2768038126724206 1.0793725678471395
H -1.4911521511384376 -2.918399382438571 0.29191560310994896
H -2.382858348231947 -2.632623787542789 1.8364206530362257
H -0.9146471562519456 -1.6852841214600272 1.4867000905082857
H -1.712388312667072 -1.2464040656264883 -1.6320720441975214
H -2.2009042076726386 0.9232089301346582 -2.554892554058031
H -3.7389184516073084 0.3287478299879483 -1.9007037624998686
H -3.4854780566118975 1.795571268127117 0.1133643401317142
H -3.271460571844858 2.76915119028688 -1.3791498754479627
H -1.347932110174405 3.3812090740933436 -0.002652076589679644
H 2.8296838062124676 -1.5710357587298076 -1.2224612644920105
H 5.193549004868142 -2.191315310647908 -0.9132242862749604
H 6.602109562402223 -0.9749336551282761 0.7229969563386924
H 5.6288483809809176 0.8606071887263502 2.0730004137612736
H 3.2672412919640963 1.4803654672984503 1.8070531553784939
