44
095948
O -0.5171201108182036 -1.6174558401360821 2.0837198527837866
C -0.2158937166804507 -1.7274033412539516 0.8633668058727105
N 0.9940996811738296 -1.1224972384537641 0.37661978319441214
C 1.779439352807936 -0.1941348476231844 1.2000056796974115
C 3.1317603828137175 0.004334550638160303 0.6155883076134989
C 4.148383159592358 -0.9499587133835995 0.5124250500916667
C 5.361634320023171 -0.5817148601185608 -0.08887650732176447
C 5.53961064424333 0.7247153604068944 -0.578445443800237
C 4.505737626808143 1.6666337841782803 -0.46594493498015555
C 3.308384597223335 1.2808535292001324 0.14233461922279747
C 2.105773364651862 2.120705517140717 0.34086213018150474
C 1.1767595212894413 1.2383880594325982 1.20454473908411
O -0.15994808350396397 1.2528821670261143 0.6999533437471328
C -1.010466407649921 2.3604538948211187 0.7984442711146389
O -0.6132451837650796 3.4161414278671796 1.3645145431699608
C -2.378039574083285 2.2851688291861305 0.24197089150678466
C -2.822899557352803 1.119451110653443 -0.40188739044905575
C -4.115943260567787 1.0546150880779714 -0.9227107445554467
C -4.959235491768362 2.1590644200076734 -0.7976851405188249
N -4.519403395911202 3.283572546471359 -0.1738945438868937
C -3.2642718374982476 3.371932366196847 0.34280460524076667
C -1.1178725043202322 -2.481771635479346 -0.04124222715558863
C -2.0320834350847123 -3.41049415001801 0.48451646248123065
C -2.89431311112416 -4.106783097106709 -0.36372193358975036
C -2.8460036701418785 -3.8648421652168112 -1.7362187120029011
N -1.9691354355091235 -2.9554416680504207 -2.2352260627092555
C -1.1147016734457582 -2.2668670077527087 -1.4319031945260858
H 1.3478663834477604 -1.3818629923411017 -0.5720929373187188
H 1.882828696982996 -0.5879352448660353 2.2352313264614705
H 4.002594961008175 -1.9553506467739639 0.8860806869592542
H 6.161275477065749 -1.305463673783272 -0.17820745803054763
H 6.4756329048476475 1.003947287155846 -1.044300275363159
H 4.635162935369719 2.672780753671705 -0.8434147610973468
H 1.6467750959758258 2.345382393818303 -0.6462503354138239
H 2.3660220145122315 3.063531304217355 0.8674974216585541
H 1.1817541581718733 1.6141108110073266 2.252973753442981
H -2.173881082284412 0.2610154562503889 -0.5042824887742503
H -4.460155632234262 0.15668100706283472 -1.4200656997086463
H -5.963815999919402 2.1231961218567226 -1.1980828331876254
H -2.961852580692845 4.289881798514054 0.8299887120059426
H -2.074486954228919 -3.604043619903541 1.5491878746524501
H -3.594803771113775 -4.826584200053326 0.03965845350879263
H -3.5100834608332803 -4.3957064489995625 -2.4049329021301222
H -0.46183934747703137 -1.5331281935452052 -1.8829027871716573
