54
096271
C -6.341684735139047 1.6919949908152265 -1.7050085398725654
C -6.454895283052704 2.5034123346951977 -0.4138773783640052
C -6.458146898143428 1.6270909592067584 0.8572228868896288
C -5.124268585580218 0.8897110160186804 1.1097762835022515
C -5.172730004682258 -0.5817603287123995 0.6528822584362617
C -3.880726799915399 -1.343377421384768 0.9802675105129415
C -2.700176177118994 -0.9090886723878355 0.09917173708734264
C -1.4871261506302778 -1.8228105724565888 0.31120101097051406
O -0.38088055100744894 -1.364529926748876 -0.4644278754955645
C 0.42198328021657994 -0.2795928689806745 -0.09002316768329971
O 0.24403028371506566 0.30420634454959283 1.015529729177104
C 1.5179435056554658 0.18037822089097372 -1.0060733729443698
C 2.7975508471639503 -0.6851018157934413 -0.9119537693021655
C 2.530416556788076 -2.1330584519374884 -1.3646743576860245
C 3.41860809408506 -0.6211215839708374 0.5092239822994472
C 4.8152252904275485 -1.2585021570509842 0.6144911000505632
C 5.831692438571024 -0.5439837830992243 -0.24425869224732927
C 6.556656921689383 0.5254710353929962 0.15532851278932494
C 6.467193309566978 1.075922430379712 1.558130906970709
C 7.498081618563 1.1651151547319907 -0.8321107761045589
H -5.325746836470475 1.252268035436095 -1.7979832294221028
H -7.10625772184412 0.8831795402470265 -1.7345699043011273
H -6.506741459483572 2.3607202432996774 -2.5759795076575673
H -7.406344848133684 3.0819252701922277 -0.44800447992276543
H -5.619991343536434 3.240542357595974 -0.36152043047799154
H -6.642968087301301 2.3087312223995005 1.7197521905693296
H -7.314868841400084 0.9150166030695887 0.8291590811024876
H -4.916602124835275 0.9040257162442454 2.2066390248937218
H -4.289764440381426 1.43087490177714 0.6116960277478345
H -6.008982132542327 -1.0897045957868898 1.1810644510567823
H -5.380813387812848 -0.6512240149882518 -0.43441821899666405
H -4.0728056344587955 -2.427074709454132 0.8203319804744073
H -3.6227255821191475 -1.2030533780191786 2.0514649647626175
H -2.4139191227528025 0.13584442496372734 0.3470676108210752
H -2.9950309993951603 -0.9498273384482576 -0.9743660951389537
H -1.7438572797510763 -2.8521814372008563 -0.021422656001673382
H -1.2075831699160733 -1.8684071057477125 1.3888098108462332
H 1.135073063037499 0.16807173958611704 -2.0514791216377226
H 1.7726974491498784 1.2391444645913139 -0.7730505116573513
H 3.5195191082226267 -0.24018769487822356 -1.6304218642922201
H 1.9913806349827872 -2.700296899832969 -0.5755278716434756
H 1.9218072927418863 -2.1414693109133958 -2.2960159745009183
H 3.487216748992275 -2.6535504144546063 -1.5930738639252902
H 2.747905799856908 -1.1365413416685746 1.232827145030338
H 3.486396101225425 0.44225891233400727 0.8310702317696478
H 5.134454037800799 -1.2649684796012013 1.6792895818321394
H 4.770061841647284 -2.323509710583578 0.30723537224096825
H 5.9531136775795295 -0.9095788780007331 -1.2617954957734931
H 6.761680955461241 0.2940644063264253 2.2894123271625926
H 5.4340450528182735 1.4171147800648634 1.773806118727951
H 7.149438573427429 1.9405731145884775 1.7005750635291053
H 6.923503173636033 1.5255313556005956 -1.7148080192308852
H 8.033923054646005 2.0320509938019193 -0.3886033530512979
H 8.254039485736353 0.41926232330162305 -1.1679783739219365
