23
096711
C -2.1838653718627965 -0.8855573942598192 0.5529407996603315
C -1.2238974088379402 0.31814191693208177 0.5783267712976401
C -1.981266979062722 1.5576344489714324 0.06456427453656799
C 0.07523672453616956 0.06493430361871144 -0.2506163384714987
C 1.111816602269043 1.15137191245138 -0.004848377661624526
C 2.401595113274649 0.9438269276273388 -0.2924674622179702
C 2.8679185203129096 -0.3843939383793038 -0.724977804870444
C 2.0654971678330702 -1.4469016003047437 -0.6206755359294444
C 0.7117046253749345 -1.322674477417857 0.029278649322963247
H -1.7495227287777482 -1.7466716677531553 1.102215174651547
H -3.140330068902245 -0.6331665343683925 1.0590017221252221
H -2.4035530954210635 -1.188297940922 -0.4934454694346868
H -0.9425306366489802 0.49994910021767464 1.6397637703990915
H -1.3711870380288698 2.477458697269891 0.1585257508513048
H -2.9045732966020266 1.7198550376268333 0.6609806800808157
H -2.2670081358234664 1.426221099346036 -1.0012431215651845
H -0.1858671046366427 0.09177178586595403 -1.3326066221939161
H 0.8218425317879724 2.124343598000786 0.36674483110942585
H 3.116494764789164 1.749259897308935 -0.18303301288675072
H 3.868667068163353 -0.4980885203339748 -1.1213335106833069
H 2.416006055531831 -2.418912330630181 -0.9443349518396015
H 0.06423756097065049 -2.1329685747295577 -0.36774321306918606
H 0.832585129760755 -1.4671357461380696 1.1249829967887048
