68
097061
C 1.1741726343484733 2.6448201917585963 1.6614463419719547
C -0.2683591138945353 2.147534677379588 1.4533061985931406
C -0.34188544149607325 0.6093167377808603 1.550253742749234
C -1.708753119727092 0.1129492787682039 1.0783002237567068
C -1.9507842647946978 0.4091781353474972 -0.4347669461138072
C -3.4888022776882064 0.4638400310771458 -0.8046377943768649
C -4.1340246259621285 1.804107780877994 -0.3454256122548109
C -3.6873212113188574 0.396535876447348 -2.3448125359120713
C -4.19882104219881 -0.7635319387834534 -0.18009972822895984
C -3.8910677592802734 -2.066399253925281 -0.649961355667097
C -4.447955024578266 -3.2018956786873516 -0.055451604156196356
C -5.318598723354944 -3.0665178884960724 1.0249536995981772
C -5.627422213728245 -1.7941669895169572 1.5179618984619716
C -5.073914553683397 -0.6537676932753882 0.9289520060658113
C -1.0980554503758584 1.6255910680080135 -0.9488940273881806
O 0.18820304205147306 1.1721241670499098 -1.3845666108095491
C 0.3973399216889912 0.4434675246761003 -2.556410898154102
O -0.4972923409333575 0.3876331532093056 -3.4445607288095843
C 1.705681301036892 -0.2515671623104738 -2.7761652462897755
C 2.8221481669317745 0.7856995800561882 -3.082473645438592
C 4.160041809795735 0.16345263061680335 -2.840070444861076
C 4.292859970092585 -0.6244957211002521 -1.7764353856101398
C 3.0882441046334157 -0.8181901104423204 -0.8882492606551473
O 3.3233876789982206 -1.8898336072237452 0.0016301773300775836
Si 4.128622818505357 -1.382673482577651 1.4679467351396125
C 2.8610891676193773 -0.8322584140210386 2.723885235771769
C 5.383431900996239 -0.008965153116090559 1.2015629141298432
C 5.0374258007931445 -2.858106194191448 2.1640793168655295
O 1.951965865718947 -1.1446429112008707 -1.6806167311229179
C -0.8839184783602609 2.698898172479481 0.13729459156536053
H 1.8553878522177105 2.2345303140927797 0.8782133221247147
H 1.210217011640351 3.754094744668002 1.629528789238542
H 1.5360355054895225 2.3307802294465443 2.665546474450264
H -0.8760699573642453 2.5537261210499227 2.2994921204468506
H -0.1859815878176755 0.29958683483555903 2.6071444969738327
H 0.45956777684105626 0.12896479724611842 0.9429005152296777
H -2.4918102462278444 0.5862127590482018 1.712763379418556
H -1.7644116363529159 -0.9867386259228371 1.256969089852687
H -1.5488457464131669 -0.4881945574741456 -0.9590495373980077
H -3.7480332483442376 2.6597927380688433 -0.9324019265180635
H -3.9433974469128894 2.0158515097910334 0.7261519245114867
H -5.232204602202836 1.7835700086464972 -0.5102939896282951
H -4.763441766267381 0.23795958892340208 -2.5802379234007176
H -3.3833749585222423 1.3388223724811423 -2.849519277698185
H -3.099545596086989 -0.4259010111098138 -2.8099468921816766
H -3.194807905179625 -2.2164307272210113 -1.4623961500465164
H -4.193010269302367 -4.191518434821243 -0.42860975630221254
H -5.752678995793755 -3.94523754278766 1.4865867261768275
H -6.299376947362789 -1.6917384341061419 2.3615509980843217
H -5.328308435348316 0.30373990651009286 1.3673703841315854
H -1.592915670482372 2.1304693181641756 -1.8042895059557456
H 1.605834518339945 -0.8926561680723974 -3.681285642937032
H 2.75082643893475 1.133485408687334 -4.134264657259611
H 2.722158637905079 1.6663992235205243 -2.4094951394803035
H 4.9922428574512905 0.3184448413338472 -3.5164791228961425
H 5.225371717584545 -1.1470660143709523 -1.590404668819572
H 2.858278525837923 0.1310894753450907 -0.34658694171242543
H 2.479005594007371 0.16721577818652242 2.442528993424882
H 2.0204703686378767 -1.5590674798814461 2.7512534802702295
H 3.331587762999479 -0.7768833626684456 3.7273691340906265
H 4.895142651701486 0.8884562807199838 0.7625331285555936
H 5.833338092514844 0.2716620167118703 2.1792200464767135
H 6.181845113459763 -0.36773476585261 0.5189206728942041
H 5.577550500203942 -2.559267254091271 3.086295940260154
H 4.316084309779796 -3.6631879106851724 2.401855447658909
H 5.765015071015576 -3.2236009025773544 1.411539902373286
H -0.2537521069184004 3.516095920714716 -0.2892542757526063
H -1.8616317254978696 3.1761361967856563 0.3708059151928532
