27
097768
C 2.7687993079352067 -1.2174383679470797 -0.5416294922302527
C 1.5835474892094366 -0.4104813982561878 -0.11414426353108315
C 1.582870831532269 0.9520168995168938 -0.14374595797539755
C 0.32405863035510296 1.628651021862215 0.3117985392589555
N 0.19524177055238143 2.917083493500464 0.27167118419841235
O -0.9610324779954589 3.53944962830357 0.6822000192469568
C -0.7784381024371982 0.6816427958049334 0.8082771117705383
C -0.03602130886682425 -0.3159008300766081 1.7237548557680258
C 0.3191313385254254 -1.0965138327879536 0.43891280951297773
C -0.9418765833467118 -0.4707172921292527 -0.22301795769132204
C -0.8809060799911708 -0.11992148464168563 -1.7367409416500015
C -2.218826978963352 -1.3116723699626363 0.0295334096570659
H 3.552759412431528 -0.5772265778142068 -0.9995557753717762
H 3.19806247912404 -1.7364083918036621 0.3404170260289297
H 2.449236143070209 -1.974373923559303 -1.287837727776541
H 2.4327873705979184 1.5206908474163272 -0.4998414030541844
H -1.0353525320250554 4.547828352097925 0.6400151757262871
H -1.7048708075416805 1.130811501774862 1.2265670352882323
H 0.8265256298677648 0.09494541273593494 2.2998592855983184
H -0.7187040908065429 -0.8770831921907455 2.397754625003342
H 0.34781906077533337 -2.203859504951683 0.5316237867702014
H -0.018188071824476525 0.49705461206055274 -2.046480166985541
H -1.796442188639535 0.4389601610104363 -2.024807261070043
H -0.8411114699861968 -1.05658071232228 -2.3322065333914646
H -2.343418776426137 -1.612804428002789 1.0888928143249244
H -2.1868932847151035 -2.2395063411825236 -0.5805300012001574
H -3.1187567104111746 -0.7286460784555155 -0.26074019622540306
