56
099613
C -5.3060802110214285 -2.555273080721874 0.518165688546374
O -5.101139083156521 -1.1604914878611405 0.3159803094120716
C -3.846045428235415 -0.5470285592892641 0.16396382757949649
C -2.64930480999698 -1.2763147466517555 0.18653567476652116
C -1.3884919012387793 -0.6451004757990301 0.037997171085130996
C -0.18723333985030632 -1.4094400679649501 -0.0010642308373077663
C 1.0464724889917727 -0.7634524083816938 -0.24956752038102464
C 1.1095505835029646 0.6593896584825071 -0.2541912640734984
C 2.3550769636480537 1.3337630243938656 -0.3173941154975416
C 2.437753286062927 2.732760751789276 -0.3053838563435697
O 3.665370069878095 3.4121432756912715 -0.3838724758171096
C 4.937961935329851 2.782907502980635 -0.49752393730420275
C 1.2748399829798875 3.4892071265760345 -0.19994879399595492
O 1.3973490979350274 4.889033196223104 -0.17173612576701133
C 0.30749678814847475 5.80085205677147 -0.07551297284987699
C 0.031850432729255536 2.8442490233634525 -0.11537717565634602
C -0.08208379266184414 1.4302108921130612 -0.16615199810079095
C -1.3439391238055864 0.769591499414412 -0.09710116478753128
C -2.5714611664137528 1.478481683580832 -0.16818684113705581
C -3.807917997139976 0.8306675984401094 -0.027482283399489108
O -5.028737416438845 1.5252779380248076 -0.0760734389820591
C -5.159350324655378 2.932108913016429 -0.2555174396091562
C 2.325137887384473 -1.571383101342041 -0.4000015926720255
C 2.1436923756405095 -3.070756484623526 -0.7028612309689135
C 3.3674326394825185 -3.847207577111427 -0.2372101828979251
C 3.058259820630753 -4.19638108693123 1.2231392093091216
N 1.6372894503682098 -3.913212652639166 1.4700416113096528
C 1.0621862756034723 -3.6979510573696914 0.14175526989451967
C -0.26242960993902054 -2.922813081642779 0.15504919410569257
H -4.917122205022701 -3.1285283045575 -0.3497670826408967
H -4.803720579110283 -2.8840657490024615 1.4524168243620073
H -6.393693164753365 -2.7512538921734375 0.6129234017691103
H -2.722298246157854 -2.3439945486186122 0.30622328083893957
H 3.280609578225475 0.7845648123355423 -0.3481072974721095
H 5.131795348180366 2.148936326389116 0.39337617522941215
H 4.980070632456133 2.169572135138974 -1.4223933776146889
H 5.723919239947356 3.5635354431066477 -0.5538985228699012
H -0.380947690631652 5.666396596885553 -0.9365197430902283
H 0.7005923154283212 6.8378625409138545 -0.09476189643690457
H -0.23681421590018314 5.646508881278818 0.8800213037730832
H -0.8259639887050468 3.4709931227478275 0.03372458673998786
H -2.5990858669834136 2.5316707031225802 -0.371338856658926
H -4.64427093238158 3.472097330453118 0.5669605825536992
H -4.736644260334198 3.233117901577183 -1.237284878856077
H -6.235296843175868 3.2009312093980276 -0.23653308465903408
H 2.912408398264311 -1.4313707037460268 0.5350499226274622
H 2.920614631419682 -1.16763743684873 -1.246999626389807
H 1.944694682603884 -3.2281051506667593 -1.7868083702452542
H 3.4639411065247527 -4.781756473991175 -0.8336778591377019
H 4.311796804872686 -3.2668732733313437 -0.3342681634138666
H 3.2586357563661403 -5.273038084283955 1.4110400894999624
H 3.7006985691393774 -3.5961195108480655 1.9064037102783222
H 1.572733918827991 -3.0194839913528053 2.013909385319214
H 0.8355464713190955 -4.705706253374535 -0.28166831568617434
H -0.8747741518687405 -3.310041347528335 -0.6895113126249549
H -0.7909311823131054 -3.1720505555551934 1.1010198098751334
