29
099798
C 4.357155327853673 -0.36546512987097557 -0.37350104301577036
C 2.8751555018228365 -0.1980544600119277 -0.5374924109156841
C 2.1172879392242674 -1.1984511815040266 -1.1552138071127043
C 0.7358199411450884 -1.0559547469958974 -1.282078586324171
C 0.0806012872655534 0.07502855005348232 -0.7774665138601584
S -1.6990364228500348 0.13209802252614763 -0.9881427470667753
O -2.0518757589025007 1.5855359636972566 -1.2752052040099318
C -2.446775540937028 -0.27535496273176974 0.6155147840425992
C -2.1163820674124034 -1.7215812849863286 0.9882532544888658
C -3.9610853537688815 -0.07106717764537406 0.5495906372861247
C 0.8359076697373119 1.0845787749751163 -0.12530609837042153
C 0.21535127199288429 2.3580135298852856 0.3863495071535984
C 2.2308836610180225 0.9332355775496094 -0.018686668734983154
H 4.776641772905469 -0.9840671956646978 -1.1953925108906396
H 4.567138535870345 -0.8622304761008537 0.5966390967173916
H 4.86698495863006 0.6213046931989227 -0.39342104120075655
H 2.596148684946039 -2.0892571445105186 -1.5428876295725702
H 0.16887781298143292 -1.8393118263837063 -1.7698009233707586
H -2.0352645627172548 0.39017533848642316 1.400919183327882
H -2.5823928202623287 -1.983494311381832 1.9620704691816364
H -2.4896603132849773 -2.420897241966012 0.2095881022896469
H -1.0179066147475173 -1.8486937375539236 1.0884503741388774
H -4.425120257593839 -0.32044545912278 1.527678779505933
H -4.408482366822645 -0.7160092124183155 -0.23696699304941626
H -4.192957015312205 0.9901976880598867 0.31918070552427
H 0.8992059513664737 2.8897847197684685 1.0818228332622262
H -0.7161276791916651 2.155247462172334 0.9464103107218932
H -0.0021745383248212894 3.0334671015029286 -0.46686813714400277
H 2.822080995368644 1.70166812697308 0.4659622769977964
