49
100429
C 0.1994652900052151 -1.3370136969658655 1.1292973205316184
C -0.4636648611528809 -0.45340052607052717 0.06835529476726462
C 0.5361328912016232 0.5699069964267217 -0.5024284427824285
C 1.6179469033561023 -0.09302763176319076 -1.2994719989576846
O 1.37124779019566 -0.5154402446764134 -2.463007597335184
O 2.8850960174204183 -0.2604458767145644 -0.7299123380137013
C 3.934825883216479 -0.9629185413753542 -1.3846124536972448
C 5.1803490048891385 -0.8793587888343751 -0.5510244515823346
C 6.135571595605565 0.12130420185487838 -0.7992636751051576
C 7.276941745592212 0.21923485435881365 0.0033340050858596745
C 7.464871271993106 -0.6710512882120715 1.0650279841107586
C 6.508634013827239 -1.6562090154948936 1.330299422117819
C 5.366709286110255 -1.75801773117417 0.528978996550224
O -1.5273291845048496 0.24472710601939074 0.6882404127633415
Si -3.004181962886588 0.17212269900609853 -0.2314566481724635
C -2.7310831565373666 0.7851492294581394 -1.9849358792068095
C -3.6187160438402475 -1.5982537296136112 -0.30578125658716826
C -4.282664571465567 1.269051660343421 0.6501660392590011
C -3.702633916391551 2.688566509218194 0.8063589062471062
C -4.577970864145876 0.682714934113419 2.0436007781929755
C -5.584549228455978 1.3315682797145691 -0.17124384744868235
H 0.5949241073267463 -0.7175451544140282 1.9636456548500498
H -0.5513064406798027 -2.0465288409905042 1.5401823101560534
H 1.0312271062186122 -1.9279777572634977 0.6882157099806314
H -0.7854146033747588 -1.1337362713848234 -0.7536162188405302
H -0.0009929109891002978 1.282778624610485 -1.1632941549602136
H 0.9887081628539379 1.162748644770034 0.32156241764770876
H 4.112524157323762 -0.524302551468627 -2.3929431803565047
H 3.6413844854090356 -2.028306622649221 -1.5195771410373702
H 5.998656598173378 0.8209406124335633 -1.613111119181783
H 8.014336137793777 0.9874522896377385 -0.19531894399467395
H 8.348001507315923 -0.593253281642783 1.6874295010682359
H 6.650782387174562 -2.338746885143453 2.158232693045501
H 4.629356891308059 -2.519593090816572 0.7504802652848838
H -3.6807349292094798 0.7131767989146163 -2.5538025100107715
H -1.9662008112849403 0.16247299194511824 -2.4909917179526606
H -2.388579022343771 1.840900071798809 -1.9664878057867685
H -2.912123905065193 -2.2226562143655966 -0.8875350799003963
H -4.612598822581006 -1.630687555281383 -0.7989773762922328
H -3.701756314493735 -2.0066544556557804 0.7231952232128398
H -3.502420843943647 3.1462565105673455 -0.187651803343937
H -4.418347080495486 3.342979288652294 1.3483075358442393
H -2.749568666945513 2.6648876414819305 1.3825340959849062
H -5.287456717336113 1.3356227635720561 2.5971309373566567
H -3.6440437482634103 0.5992897502092811 2.643585973743752
H -5.035742857677519 -0.32645894520373164 1.9637901078245918
H -5.401808222473093 1.789998061780923 -1.168583610205142
H -6.0117146429599755 0.3166011934925047 -0.32137487679223764
H -6.344088904813375 1.951132982794692 0.3544525419180604
