61
100544
C 5.883663087086416 -1.0969190164020028 -3.860146816283003
C 5.375147784994651 -1.1593552296641787 -2.450604696159624
C 6.009500332907432 -0.42945285154596535 -1.4329953470750925
C 5.511298469950599 -0.4611663185959718 -0.12680809114934194
C 4.3667302847068585 -1.213042421451899 0.17183637560609147
S 3.70903436182106 -1.2443768726496949 1.803196605730179
O 4.400838367390522 -0.23902858801873145 2.6810645605235104
O 3.9062592663576203 -2.6148202306453907 2.388200721246305
N 2.018013538983816 -0.8679555913335535 1.7320210354550543
C 1.0121241278189599 -1.738666816858036 1.9390062810113324
C -0.21225722707679148 -1.1362513489412516 1.67149803856715
C -1.507800305285744 -1.8991405703848143 1.5907037977700447
C -1.9317456646726843 -2.16534348205335 0.13027533232543273
N -0.9681462768411996 -3.0472620771557457 -0.537175706492773
C -3.3341549391856877 -2.7937503914608186 0.08541742351532038
O -3.31548201523301 -4.07276024224256 0.6585249114370173
C 0.07868370349092793 0.17580080810387042 1.2803161035641146
C -0.7228143663088824 1.2532255788614262 0.8380579214129349
N -2.1604255140735975 1.2160422508246602 0.9148349184661675
C -3.0537099890583677 1.9017047052065006 -0.028524942020708027
C -3.8852703588144895 0.8649296636446174 -0.7338070413169893
O -4.837099713809193 0.2941520054937399 -0.13506047768435667
O -3.572096473173059 0.49941303685796024 -2.0392440132279552
C -3.94308980599403 2.940648525518311 0.7140544270679129
C -3.0973027681405383 3.9648233281713683 1.4865668539186931
C -4.8721510236819805 3.684771525830614 -0.26052930855436257
C -0.05247470508253965 2.4263943436708635 0.4155010740657483
C 1.3511098454385762 2.510771013987992 0.44001473441342215
C 2.1199017364624453 1.4351916998438734 0.8967063769796502
C 1.4563171624360438 0.28229888572904127 1.3169284148408946
C 3.722415487719658 -1.9288026701836913 -0.8457911213727931
C 4.220732634305687 -1.8992030893193932 -2.15121336673326
H 5.743320404031297 -2.076445631934118 -4.36585123561302
H 5.326416274324253 -0.31646483741891923 -4.419844624273255
H 6.967256906415802 -0.8518131073860363 -3.880291467283052
H 6.888107443598453 0.16556920731029984 -1.6504792758934077
H 6.015029552770498 0.10535401988772705 0.6457836024874479
H 1.1563805106013088 -2.7787646243733293 2.202093760260788
H -2.299344183475997 -1.3602323168875252 2.1444090649480256
H -1.3860361280738605 -2.8725854912545907 2.115057072368252
H -1.9739918398111387 -1.1983750379899036 -0.4162875749839346
H -1.292645835898743 -3.2075928432804957 -1.5186991755899704
H -0.05765063085820697 -2.5416781219677245 -0.6270468133934839
H -3.6716495265881184 -2.8633389029212184 -0.9731979198793915
H -4.0545351757470245 -2.1473959127816507 0.6340403631760874
H -4.245873798552037 -4.413770340611504 0.6017593762497865
H -2.604659269512682 0.7209959137665254 1.716717085370071
H -2.4636161902373934 2.4298105339633422 -0.8077428617219937
H -4.109223282720443 -0.21044988785608662 -2.523245893933644
H -4.578078108222829 2.406793415471538 1.4563585323179018
H -3.7586670157560174 4.654941339443107 2.0530858963108236
H -2.436374580345375 3.4586785709888535 2.2213034765656388
H -2.4767665590895973 4.567195286132788 0.7898285290277299
H -4.280173191319117 4.2073170173933745 -1.0424498223681313
H -5.572929635970079 2.9790248676946813 -0.7533704652653743
H -5.48297610086793 4.434787678106013 0.286059074705964
H -0.6035893266164533 3.2966026032840947 0.09366209625276958
H 1.8408147148611917 3.4190005232578033 0.11312864359877006
H 3.1992266833414527 1.5042951619449738 0.9097013249431369
H 2.830869803629421 -2.504086372132477 -0.6285652459001417
H 3.7056090406498647 -2.4502422726873263 -2.92874050233111
