55
100638
C -4.217047552177464 0.07473398909755233 1.8696946255959483
C -3.348025152320353 1.3354679890914727 1.7115450017268288
C -2.5237815071252605 1.5723739828401142 2.988875622414426
C -4.254389212275042 2.554482870570227 1.4683047989052367
S -2.2171498343479152 1.1610096184351713 0.2871761775203711
O -3.141065957150317 0.981869757873418 -0.9111578489047806
N -1.423460147095557 -0.4152909833113257 0.4288125694777929
C -0.0683854997300593 -0.43205848106663286 -0.18552841225926045
C 0.8958074109749768 0.4421858317886828 0.6943462768151301
C 2.3816693357527106 0.4057568062921819 0.28752288940832343
C 3.1746063384267758 1.4505964474800002 1.0832453409236515
C 3.3431521956180235 2.8059383179254658 0.41334978577707676
C 4.513896169310579 1.8366354437460868 0.47479451416210594
C -0.21294395788596168 0.05526946418622569 -1.6481381522088943
C 0.22944139065269414 1.319512550699727 -2.0962604578507134
C 0.01899545758692296 1.7168893772652107 -3.417018632007215
C -0.6583110826833785 0.8681570453600986 -4.288917473814456
N -1.1202891837022895 -0.3288584698548733 -3.8475587442017702
C -0.9268556791489412 -0.7433003868639803 -2.567852116299281
C 0.47878184862990475 -1.8839981007476112 -0.1859020553432566
C 0.11477439885950069 -2.820571098765451 0.8097126178332957
C 0.6513478714556614 -4.110044740126722 0.814215772098685
C 1.576604177395526 -4.494429003240144 -0.15453529087413465
F 2.0856635414387124 -5.751880340674899 -0.12789462369987778
C 1.9826708356125722 -3.581412807965099 -1.1349245594959885
N 2.9479239806251765 -3.9580930457310557 -2.1224170833623703
C 1.444128011362194 -2.287448303037234 -1.1413276237721128
H -4.935941206267881 0.20141438710859008 2.7077813322580413
H -3.5940562247894996 -0.8172846710412716 2.0876173608949244
H -4.795437809982563 -0.12065628432450203 0.9416868243636661
H -1.893167333401706 0.693135435022472 3.2326263351397073
H -1.8583478885387343 2.4534570406734497 2.8626480350125187
H -3.1931606468166227 1.7599170722352555 3.8561233968366313
H -4.876907234762149 2.407121659791007 0.5599369306700543
H -3.6427463616838573 3.4716411335696726 1.3271199685008208
H -4.935697871197989 2.716983918014443 2.3314157221132414
H -1.3395491286292875 -0.5928396630220542 1.4519324165329568
H 0.5431418258510445 1.4948756676305364 0.7177558859045674
H 0.8382854003756142 0.08758945366992726 1.7476857332409135
H 2.4972992357299604 0.5572778547677107 -0.8059900734516109
H 2.8076421016981037 -0.5891244470979999 0.535400424746424
H 3.14672084766111 1.452349730550801 2.1940930590388694
H 3.4285837277319042 3.6594138631934188 1.1184299049130382
H 2.903858911338374 2.9149548170715316 -0.6008249451824471
H 5.2922041678780785 2.1198087105142833 1.2145318731102999
H 4.763881225470378 1.3694011609413794 -0.5020079391010741
H 0.7260817237306791 2.0165036810673445 -1.44048883297925
H 0.36963354096561496 2.682122508609275 -3.7590546574866455
H -0.8299999807020318 1.1667724546164788 -5.314373573954844
H -1.3331052539660637 -1.6990036269942244 -2.262817958877105
H -0.5798746375517909 -2.578722618755199 1.5980081333533886
H 0.3511393431004418 -4.813719847708045 1.5802572163609343
H 3.255771950930474 -3.279395025526296 -2.8542223389372583
H 3.36385831732462 -4.915798391218839 -2.133586094026436
H 1.7921310604443899 -1.591689704625749 -1.8938470575590824
