40
100764
O 0.04555774231201311 -1.9061886896214115 3.092733929838992
C 0.013803079994476459 -1.292424202286946 1.9939342734468146
O -0.38223605479232453 0.023780674639508635 1.8823718673090315
C -0.4742262771301133 0.4246826883531003 0.5204926139044795
C -1.9350657027733922 0.333698793589723 0.055308923340318554
C -2.95802390589096 -0.07719903922721294 0.9417503993679303
C -4.288775692445553 -0.155118713886496 0.5212004481950807
O -5.270074804470201 -0.5678734913824989 1.4200470542850427
C -4.625004464410964 0.18108812492421691 -0.7920913266624553
C -3.635399763817951 0.5959008959695673 -1.68101117414663
C -2.2972210063697305 0.6769891938262067 -1.270209917584215
O -1.3316024280811347 1.0950832338132104 -2.183054906831307
O -0.07039959944454878 1.7904637494848727 0.43544824427113277
C 1.0793453205721153 2.0311257980625146 -0.34835245277995075
C 2.2387700661010443 1.126831776213282 0.0648816306063488
C 3.5600069777666197 1.6287123249413078 -0.556619801672216
O 4.647393078567166 0.855440947343119 -0.12639814167441252
C 1.9029659618302297 -0.3125430160004502 -0.37875818241901954
C 2.6962461111131204 -1.3676679966995027 0.4083498883743806
C 1.740608726410488 -2.5174124632873753 0.6511726848195973
C 0.35390504962303737 -1.8953125612711905 0.6813560871038118
C 0.39943463272719376 -0.6585978958913924 -0.22395466809009082
H -2.7397535711147447 -0.34051666194373587 1.9677939121218135
H -6.243845465832309 -0.6349802200394401 1.1476496874704556
H -5.653662139373114 0.12328738006434753 -1.1246235923245798
H -3.909736833528919 0.8559188497024856 -2.6955593178475166
H -1.569441689081308 1.343282950996406 -3.1362426627768434
H 1.367600440140195 3.0924241537329866 -0.19118586953317307
H 0.8552659201325782 1.9198278924938095 -1.4298598375422336
H 2.325138799280205 1.1838141049553477 1.173611318636019
H 3.731956986228054 2.6951087231200628 -0.2836904821516413
H 3.5025146622459875 1.5768529056758107 -1.665175807163815
H 4.819092747085007 1.1077481105126465 0.8183497097689201
H 2.1558435279645507 -0.4263408278355124 -1.4583658499864816
H 3.5877344691226996 -1.710133143999526 -0.1609550175760164
H 3.0336531195994327 -0.9762469812941684 1.393393957322497
H 1.9829906906221706 -3.063376301424181 1.5891680518930495
H 1.799115139642421 -3.2296368559080535 -0.20129678506271564
H -0.43585416438456487 -2.613992299160532 0.3709343465744318
H -0.018619686138978003 -0.9165019112549042 -1.2225432348248335
