37
100974
O 1.3242144916510012 -3.462593967739227 0.670083159215669
C 0.7862836138435845 -2.328999157216694 0.5632442931366881
N -0.6373679697823221 -2.2365064821795566 0.5532880505445307
C -1.2991972743985358 -0.9330773262256157 0.5136263661548546
C -2.7983988259739814 -1.1054491519814198 0.14199240127854743
O -3.5041452255319134 -1.469374016610362 1.3028435570076373
C -3.408520476973179 0.17311188774898598 -0.5018931879333376
O -4.7999891810884225 0.2400888136901529 -0.3004522419804689
C -2.7011511168175852 1.453543341223738 -0.004896192997442346
O -3.328177118766786 2.608391025957311 -0.5056233108317543
C -1.1960808463881536 1.4472274991231608 -0.3708083625705708
C -0.5730458353699761 0.02200451162182038 -0.4685028370599328
C 0.9408503203326453 0.03131012007945513 -0.23427639098539227
C 1.7259756754937894 1.1209906143433832 -0.6899142437266667
C 3.096131088419597 1.0863580329494003 -0.4813366994123556
C 3.7038786677603937 0.04611835236098331 0.13163281490893633
C 3.002462680650655 -1.0679779397296734 0.5764102144477987
O 3.704126508025813 -2.065265460316956 1.2562527162599026
C 1.5963392847851885 -1.1100164698710715 0.3328324097172546
O 5.06031983001112 0.2966230579178365 0.2236759836777981
C 5.319010952640789 1.5714476804655655 -0.37902951729381906
O 4.037224053392337 2.0408679077331184 -0.8167184332465016
H -1.1998564658634918 -3.115485425677955 0.621008028117372
H -1.2276296638005597 -0.4869834032003412 1.532223802062524
H -2.8787559403432237 -1.92244757089474 -0.615939885571034
H -4.281745976719503 -2.014991933294577 1.0135242426560302
H -3.2434892963439683 0.10831433012900449 -1.6008241566995434
H -4.959176370421128 0.4896146565903234 0.6473220839246016
H -2.786545196648664 1.4827577959503526 1.104320347066104
H -3.3223715937160447 2.548135614590845 -1.4968901249296922
H -0.6620169401560176 2.0472064817439732 0.3992597267386988
H -1.0517526937153479 1.956172451039741 -1.3489812751571248
H -0.736706377799609 -0.36085528634407227 -1.500921979747473
H 1.2925835967311865 1.9738210610600944 -1.1932353606638495
H 3.2580154371325447 -2.7875101922830354 1.8037494084434336
H 5.747729268956224 2.2696862600199714 0.3700681535330161
H 6.000974916791546 1.4537422872260781 -1.2471135580844375
