50
100969
C -2.9803470670815284 4.336430867577076 0.05896361853884358
O -2.7400120525372222 2.9517473667075755 -0.1588847327953162
C -3.7254327884555725 1.9763127990287763 0.01921642284620744
O -4.897717301256257 2.315302927115059 0.34269992088866824
C -3.4160387442178295 0.5478708131680435 -0.22655000552028762
C -4.33738672000521 -0.2109356880166271 -0.8416979604560318
O -4.120582979790795 -1.5710206099580881 -1.1011824809371829
C -2.9365748515920065 -2.2851872014016843 -0.7297069848662999
C -2.6754623079533495 -3.345664150696369 -1.8053965272603012
C -1.7459697169851927 -1.3064115912165268 -0.5637443266293758
C -0.4456930456594086 -1.9875838899556308 -0.04449960841200214
N -0.016269304945477632 -1.4535302457289008 1.2664167048714732
C 1.1528787777413463 -2.1909452985142237 1.8127620302416207
C 2.447098036968685 -1.9725404400246709 0.9950789054419606
C 2.5707403740854176 -0.5340672011365902 0.6106914769645213
C 1.5327378186120282 0.37389934884766723 0.669320893712304
N 1.942694266055526 1.6067208624416784 0.2874238462344908
C 3.235910742044638 1.4578407793906694 -0.060358594502132566
C 4.102798956663206 2.4427507773035684 -0.5313483547125947
C 5.426695430151627 2.0672793955833244 -0.826856337056751
C 5.851780202554463 0.7319714276165195 -0.6431270673062638
C 4.957911852109656 -0.2416988257768358 -0.16090195720796943
C 3.6533778671772423 0.1599235589262833 0.11933939030846087
C 0.1944641392345094 0.02166446675975901 1.2648762955425972
C -0.9739250369725466 0.7830134176040844 0.5843939687550574
C -2.183603993290982 -0.13828026558315734 0.350380228294031
H -3.776379389171946 4.6967793345716995 -0.6265002820484333
H -3.285597367710573 4.507636662747983 1.1129643792034551
H -2.0484266711900925 4.903525431238796 -0.1419895183712996
H -5.267018033328027 0.22699081849152977 -1.184347746701888
H -3.125953365042842 -2.7960680561690654 0.24006480863287755
H -3.5872317482648497 -3.964288430379504 -1.9454071837994409
H -1.8493638160999661 -4.026928067286559 -1.5199415087515147
H -2.42834068474256 -2.860926950340556 -2.7738848135796172
H -1.522561389829479 -0.8780911379867498 -1.5690492678320778
H 0.35444938899261813 -1.8378329451006499 -0.8023161734861345
H -0.5941184640655159 -3.0825014820253127 0.055882695552867644
H 0.9291352109067893 -3.278652864983084 1.8664533806060735
H 1.3299811850636711 -1.8574830377142242 2.8590910467056854
H 3.32582414217901 -2.2750859781989883 1.603595209562782
H 2.428823929101162 -2.595578762589533 0.07618986910959118
H 1.3845782704472938 2.4895202094457076 0.2813608522794333
H 3.7697014544162966 3.4636135128401127 -0.6665470345723755
H 6.124700369981995 2.807296130637675 -1.1960681907618322
H 6.87295216810827 0.4566546369266748 -0.872355451579975
H 5.2754941132146085 -1.2656207422080885 -0.011994399703636785
H 0.22570236243635927 0.3500473356056978 2.32781708460502
H -0.6599827462185971 1.2105154815140253 -0.394207417911919
H -1.2612544488823354 1.6214157756695493 1.254049438871349
H -2.489187022956267 -0.5498002747679199 1.3398314589932805
