76
101262
O -6.271250540908223 -2.77748190866253 -0.32693751791612474
C -5.13343454644502 -3.3031218628991423 -0.194344857924204
O -4.532540456086753 -3.938784466913118 -1.2769863745523657
C -4.440087569540463 -3.277430646336258 1.1341258412621107
C -4.251435086102622 -1.8496313972836786 1.6770007390912332
C -3.0437051266585065 -1.1086786372184965 1.076097212833958
C -3.2365700312522 -0.7244365164524519 -0.4002351004667855
N -2.2727320787918033 0.3252060637829508 -0.8095366297313906
C -2.6886602666546855 0.9518849799425435 -2.0849208840895654
C -3.8616723971992695 1.8742994280563678 -1.8731930256183158
C -3.706533475362746 3.041147537951775 -1.1124264412340594
C -4.7901953941968705 3.8968516802802515 -0.8988450945239707
C -6.049512749283961 3.601077529725829 -1.4473884406843065
C -7.193314006852621 4.512448447323328 -1.2246977433054147
O -8.322137696119816 4.254309361897787 -1.7227628984859722
O -7.0324450694940985 5.668404475645298 -0.46485098120961627
C -6.201828255065884 2.4305916407818295 -2.2115354207391826
C -5.117141540643042 1.5738081523379797 -2.4215164485053524
C -0.8827173797873429 -0.19771255401604018 -0.8971383657734191
C -0.019214765653428306 0.37196755397286146 0.24498299299651743
O 1.3326070854396244 -0.014887118047680902 0.05513260440116456
C 1.647537030595445 -1.1595339616495646 0.8194777544480611
C 3.057632786800483 -1.5711267843717491 0.5124703443946855
C 3.3169174537868042 -2.5989701510123253 -0.40734183864871254
C 4.633964663089815 -2.9520223286923235 -0.71550045766866
C 5.7072279959947245 -2.285926107510817 -0.11322005122169208
O 7.014319994592364 -2.6597016948177155 -0.46197166819354185
C 8.138713836042268 -2.571351837955912 0.37379014778350195
C 9.398630766836844 -2.3877406671401546 -0.21038115674417796
C 10.544518203461328 -2.3127644315063023 0.5879597993252276
C 10.43959619847547 -2.4367833077287693 1.9766179004062199
C 9.189443748606358 -2.6368812529951122 2.5675977738813507
C 8.042091277964838 -2.711216563689836 1.771420876535237
C 5.447917708348437 -1.231291345651852 0.7799123944284324
C 4.132094031582391 -0.8779579958865777 1.09056486625905
C -0.08567532026372264 1.8848200094502403 0.2657348420398053
C 0.4801423309265973 2.6409490075003386 -0.7772164600218767
C 0.39807803590875324 4.036053990701105 -0.7634811553957326
C -0.24496984750359566 4.690903167432732 0.2897977930876565
C -0.8094180699048853 3.950971267484022 1.332832352685391
Cl -1.6277839406578383 4.772958342290588 2.6482731825736527
C -0.7337534112340555 2.5539192517761133 1.3205703149940644
H -4.990627171861446 -3.9719525702893823 -2.1805878209645257
H -5.061674389700596 -3.852445744782371 1.8535421247603094
H -3.4575896148527243 -3.7926363362069906 1.0613581030765944
H -4.077869205108353 -1.9283431504665678 2.7723854037258895
H -5.178467106351062 -1.249334674142862 1.5474789190284253
H -2.133416535957604 -1.7358742572549024 1.190292326151858
H -2.891085854285495 -0.17712481435799923 1.665474289011522
H -4.276325101845533 -0.3491450035533667 -0.5140250160828507
H -3.1340691820604873 -1.620701505005722 -1.0512105540290992
H -2.9160219136794745 0.1725857845669247 -2.848380908246984
H -1.8682957203871398 1.5804743725442203 -2.4982764810636318
H -2.7445091934592782 3.2875424018016126 -0.6860974396595058
H -4.640467706490628 4.78858884684045 -0.30325616928682536
H -7.809172921901738 6.299205639159028 -0.3063030436679525
H -7.1587987650244544 2.1759567720786825 -2.648353909478689
H -5.258079754575448 0.6748970607998561 -3.0094373993618255
H -0.3932441279402224 0.054477718098737485 -1.8656081161645486
H -0.8544483413276077 -1.3091659111692497 -0.8501908149511203
H -0.43380762626814495 -0.004656448769973904 1.2108763857332567
H 1.5698051367804589 -0.9328598509431937 1.9077917828400461
H 0.952923913938156 -1.9991175890411184 0.5874201523990036
H 2.501619121422079 -3.1260964457793428 -0.8877880367480683
H 4.821662644417464 -3.7486090366482445 -1.4236163316141228
H 9.488636868135469 -2.2961688234826347 -1.2855787050615115
H 11.51403936503976 -2.162523779068939 0.13029326729098076
H 11.32673639386745 -2.381084308874281 2.5942109980770525
H 9.110594893728415 -2.743731916393699 3.641528310190666
H 7.087165590319682 -2.896994490758485 2.243353220638927
H 6.260524735352189 -0.6685118413487999 1.219832179764833
H 3.950389383077049 -0.05894306924542304 1.7758135808068474
H 0.9803655994455777 2.14956296545546 -1.6022226303285871
H 0.8317247145499743 4.610519412341153 -1.5714517397466636
H -0.30753356851110736 5.771456680676895 0.29215424968687687
H -1.183388685274304 1.9936155633250028 2.130649102500536
