27
101989
C -5.008429264636977 0.6618908696231152 -0.8230739344217325
C -4.2365968564867496 0.6936482528534936 0.48612308296967927
O -2.8398845433948443 0.6319958740676423 0.2179635770370318
C -1.8772610694449257 0.64330695086194 1.2310928179718275
O -2.2163067484486554 0.7456533947788541 2.4414476577692747
C -0.429175281373095 0.5776018556263819 0.8729487078498419
C 0.2914602909939309 -0.6471217666266161 1.4297436496137992
C 1.78628655943858 -0.6117252411075669 1.406018478360007
C 2.222635977806285 -0.522721461084903 0.1626592766926587
C 3.6312526243751786 -0.46826472036194744 -0.24615016487584002
O 4.547353250339666 -0.504550888627513 0.6210110425761644
O 3.942814813892854 -0.37682088751077963 -1.6052456864189917
C 5.281558898943021 -0.3157528184050639 -2.0822547624469863
O 1.1702635722142687 -0.47135339482261035 -0.7323858844190537
C -0.07746911605187998 -0.5754740379219925 -0.05685347353716041
H -4.783429392526625 -0.27575696743277583 -1.373894000945202
H -6.098582000481247 0.706993728211882 -0.6169213550655329
H -4.7235942700518185 1.5315751227675292 -1.452202225464398
H -4.53737402608891 -0.17536260830534234 1.11091388898601
H -4.473669962188695 1.6339230237538003 1.0295403657911608
H 0.16397937665249024 1.510352924074072 0.7574489917870294
H -0.2534560340688209 -1.4712130487349822 1.9393280765807388
H 2.418364857296094 -0.6549776995609724 2.2835242004097793
H 5.271537802674827 -0.25638138119193293 -3.1897501365796135
H 5.788189962575057 0.5859295786329295 -1.67814555611389
H 5.836646180917657 -1.2275711727342082 -1.775847068427303
H -0.7971156028766568 -1.3678234808224332 -0.3570395656792992
