52
102538
C -0.9093046837008656 3.947152474640855 1.209165282475066
S -0.43054197865027677 2.325057734344546 1.8808022639134327
C -1.9788667364958166 1.5318686406004933 1.4111280877033805
C -3.052016911368951 1.599080114336971 2.3033133286920955
C -4.2755719725157695 0.9888122251187419 2.0008515918140595
C -5.409287828481853 1.0206744586217176 2.9962766759658344
F -6.6312997660793025 0.9683137914282123 2.347883495680228
F -5.369810349601737 2.182875244477821 3.747550345834717
F -5.301663982213192 -0.06665750331224249 3.8430727399477083
C -4.401283394893528 0.2655043831196754 0.8055103441184639
C -3.3411608273846287 0.19367547581280636 -0.11896755975838665
C -3.5208328622863556 -0.5933664442288569 -1.4050195740806137
F -3.052854264250534 0.13558974318083084 -2.483638026190975
F -2.821160175037463 -1.7822566887769256 -1.3194529045616898
F -4.852997985050079 -0.8865346824167771 -1.6424461511220194
C -2.1090284257461693 0.822031143311872 0.1987334763491173
C -0.9479461294883567 0.7107443515806967 -0.7049796168074396
O -0.6416969161674624 1.6862478187540952 -1.4420440262266554
N -0.16986953142762506 -0.4940373928016165 -0.7263839794701357
C 0.9198227815657175 -0.7228593888205251 -1.682708106899184
C 0.38976869639817163 -1.5633661031620922 -2.861829438769395
O 0.521583805279855 -2.938252885373728 -2.5742072404376564
C 1.8838636720726198 -3.3252804690790407 -2.653824953096479
C 2.8575705687495567 -2.330141428179791 -1.9788118362730536
C 2.1250837568560863 -1.4172545625302495 -0.9685589726915929
N 3.060554101470047 -0.4061758991534477 -0.40257550874200604
C 2.422579382011426 0.4657305463710861 0.5914433811653225
C 3.5248118479101143 0.9937695192632324 1.4912143480590956
C 4.661275338000574 -0.0013612495000588276 1.3532367994457661
C 4.194815660230068 -1.0088441671946853 0.3125686518473658
H -0.0704732511955537 4.658985802275834 1.350129856237076
H -1.1331864967944911 3.8655698553622977 0.12562235073517353
H -1.801631722809899 4.331494281314657 1.7457964234867513
H -2.9250872603401956 2.126126614211507 3.2410743313488473
H -5.332691930293506 -0.24683579066542252 0.6009997110762249
H -0.48014029914409173 -1.2898869427460813 -0.12343833378978615
H 1.2695037806765288 0.24658811626525798 -2.102414529808818
H 0.924749014133295 -1.2969965735006446 -3.803803703807265
H -0.6817613434867218 -1.3358510966699033 -3.044475179479293
H 2.1709801382185985 -3.474963651691766 -3.7180672544775653
H 1.9823126667058577 -4.311666750102162 -2.152460749035062
H 3.3327856866944985 -1.6959318374944485 -2.759751092175054
H 3.663093847537196 -2.9103391904475817 -1.480548450436218
H 1.7412017550430083 -2.076182010096506 -0.1545449770425712
H 1.691534920528305 -0.09978740648268412 1.2144398857724887
H 1.9071849414644026 1.3108690511261012 0.08742209160750535
H 3.8529026771442494 1.997866107758996 1.1419856190894546
H 3.177049584908701 1.0689068921522724 2.5448950378681796
H 5.583372651335786 0.5151871736653831 1.0063054628084764
H 4.869532181110437 -0.5049826364282377 2.3226955848697037
H 5.019777417980503 -1.2293149901095444 -0.3986996089024204
H 3.8944561508788222 -1.9495938181309427 0.8295346061698007
