37
103121
C -3.785414785088545 1.9126864679881836 -1.8319504639218152
C -2.6065393766909764 1.586674028387782 -0.906422943405549
C -2.1241094683795056 0.10684000676588554 -0.9487861491938343
C -3.24715934104887 -0.831027112137912 -0.4523082547307321
N -0.9654958393118803 -0.03160429809822274 -0.044822118209616534
C -0.09943930408111108 -1.1824380182801988 -0.0021129545199374622
O -0.41736370287480357 -2.2399100538654837 -0.6113599185688307
C 1.1601532165194164 -1.1493462712943892 0.7745587744445627
C 1.5454176649032967 -2.287286585470047 1.5001870341408843
C 2.720438475310635 -2.292072805692159 2.256751644475377
Cl 3.1304018085935685 -3.7498644849149745 3.153198467874229
C 3.5379700485475203 -1.1475872103531988 2.2892253147551855
N 4.747441974410873 -1.118543858975253 3.058150747864857
C 3.167619546863463 -0.015794651636492508 1.5495135264721436
C 1.9880935406449587 -0.007297165437665945 0.7794414271574825
O 1.6289342915605594 1.1003749290607632 -0.0084542831085642
C 2.3447459596264886 2.3302388830302037 -0.07157862439304552
F 2.3205066301617236 2.954156319535539 1.1626673258592102
F 1.742311637758672 3.1541574530052126 -1.002378211905044
C -1.7018636023808977 -0.24034156108807314 -2.364317010466059
O -0.6525130662504732 0.2662172993672713 -2.8467564577271847
O -2.479068229198098 -1.0845795928727051 -3.154312326779332
H -3.982767048495131 3.004919159123451 -1.7991472138144324
H -3.5592771010790822 1.6358359839518104 -2.88247065306911
H -4.7072721556734605 1.3937188411340344 -1.4991370903775083
H -2.8987892934074835 1.8528921462128687 0.13340328229357548
H -1.7582386529081544 2.2519180241569745 -1.1825375402858194
H -4.136321417173366 -0.7901595301779867 -1.1147617224653161
H -2.9059038033148505 -1.886038431694826 -0.426795609297163
H -3.5588364139003668 -0.5462968641218858 0.5754779559177333
H -0.7814404776752936 0.7291007072919623 0.6488527016196537
H 0.919642529028457 -3.171989591533892 1.492316975720594
H 5.063784724589488 -1.9369588093623578 3.622406679493261
H 5.347277214597104 -0.26355592244653114 3.0718130853756125
H 3.813743521097511 0.8508379053729785 1.5715408637481991
H 3.394224570141653 2.148349419903528 -0.3852185735954085
H -2.204894275423037 -1.3062247548341983 -4.103877687378255
