32
104264
C -2.229085873032433 -1.410033716311196 0.49262476232539326
C -1.0925251650619006 -0.3573059985190754 0.6726441029816433
C -1.4685560093373335 0.47847526522478545 1.936953497059645
C 0.3307991203188136 -0.9705407179921015 0.7252348096348918
C 0.47139862558844947 -1.5879351093474794 -0.6994432388040794
C -0.26637902252709855 -0.5670416026905941 -1.597254678712286
C -0.7603592862498424 0.4852850078177261 -0.5787983866417536
C -1.876059746113873 1.4001616500332315 -1.0980212513474548
C 0.4881608500071851 1.2008564150263457 -0.11521083710358598
O 0.7808097652506072 2.357911719115931 -0.3764304384099609
C 1.2568754487487215 0.28850972253802404 0.8059429312059667
C 2.7072191154729506 0.015133532204170725 0.4388665565910321
O 3.294210498572185 -0.8748485636804827 1.036944867096419
C 3.468603456460128 0.8311848430998663 -0.576572748497142
F 2.837540367458532 0.7770825643905035 -1.8048661873338463
F 4.754130203938731 0.3388061612065989 -0.7230406832336053
F 3.546545485951322 2.145097652790408 -0.15422499596995576
H -3.214550822352441 -0.9030442446278059 0.4184052158526423
H -2.2540679115991593 -2.085377902896727 1.3743831317250095
H -2.1394168351848775 -2.0464540660248356 -0.40623211918419305
H -0.8685192039354785 1.4007555483327887 2.066916798294013
H -1.3499976734523242 -0.14471571119140844 2.8488230497125677
H -2.526562537213628 0.8130233454751088 1.8816058813538747
H 0.49089881419272624 -1.6999656015202063 1.5483530704585304
H -0.0064977792067803805 -2.5891711628517498 -0.746728198713507
H 1.5250403330858227 -1.7211283365209225 -1.0207867248681246
H 0.4176063752025439 -0.12066178759261303 -2.3524533718624276
H -1.1100269996785068 -1.045010308308332 -2.1399822350934703
H -2.7684408923919115 0.801423518711902 -1.3760211301771121
H -2.166710760264621 2.138215610537942 -0.32115875306664016
H -1.5265965361012037 1.949988148269971 -1.997463629071662
H 1.254514593454698 0.7013241253002259 1.83699093379918
