45
105156
C -6.048664983126022 -0.4058971745960226 -0.8164196590407058
C -4.92330835972151 -0.6822704985329007 0.17633145140020948
C -4.058781840468863 0.5677885618577739 0.3939472176455222
C -3.0016150553919823 0.37661374683083576 1.4958806826687192
C -1.9640831334304245 -0.7316662200496696 1.2221615835267818
C -1.199151788661477 -0.6214987937549317 -0.11884169915662823
C -0.4566694742868851 0.7280014506702923 -0.3131131365701687
C 0.773809463633984 0.8162753262392959 0.6031430996982713
C 1.6280243517520945 2.0597462922698435 0.36832746798440935
C 3.0678220949419623 1.5815349235014942 0.554876335600388
C 3.0540986106366623 0.08768333459382896 0.19446691176730063
C 3.530752913209309 -0.1567101340465904 -1.2543010547580662
C 5.005202471841255 0.11023669499980474 -1.409051568651656
C 6.023766214405824 -0.8298855006359566 -0.8374441710865722
O 5.380775854478233 1.1139437732833564 -1.9953122137701427
N 1.6583430170641595 -0.3038026761276972 0.345639922892758
C 1.1281284463134276 -1.6097315365678206 0.0892946102385416
O 1.8782093157074613 -2.6219055171578605 0.1070109072206281
N -0.26352891286586344 -1.7501519941031702 -0.222419345245584
H -6.715225121972136 0.39530864737422833 -0.43198614764561943
H -5.629523600507646 -0.0957805087616693 -1.7974079382962034
H -6.650313120368116 -1.327677168023317 -0.9625375543023591
H -4.301075606074504 -1.5108887650365352 -0.22313609018459635
H -5.367535250898058 -1.0061362079776393 1.142604263346943
H -3.5739809414687267 0.8682521874703127 -0.5588375224430662
H -4.7172856468957285 1.4094916421272905 0.7017506504451504
H -2.4786220690644654 1.3408423253270942 1.667196386977417
H -3.5218400719724117 0.13743771943184305 2.4490465766889886
H -1.2376971912240367 -0.7416194782475466 2.062346999580808
H -2.4778817401603415 -1.716334627708756 1.257482580593923
H -1.9324610884605062 -0.7220174021079588 -0.9471604611282924
H -1.1287210194330128 1.5927159387480871 -0.13969375774729864
H -0.1231109104473459 0.7876086358169767 -1.373043408402807
H 0.45916714385600416 0.7920183594575992 1.668955105672854
H 1.5041197066428444 2.438749767919014 -0.6703610091564809
H 1.373682277001868 2.8697525584921113 1.0858546422155553
H 3.771559384756958 2.1821585564969617 -0.060267755730124106
H 3.3516758345720157 1.6957539484542359 1.6243496050401607
H 3.6801249489513 -0.48811801378666153 0.9114691747708359
H 3.341632921029209 -1.2106446092444483 -1.5466468569703395
H 2.950983027378684 0.4844708765778265 -1.9550672379746812
H 6.685056998849146 -1.2000359602607686 -1.648565014602771
H 6.636861723208155 -0.29777495527134884 -0.08033857872540091
H 5.533340642889729 -1.700727468130812 -0.3534259616260032
H -0.6460604362202169 -2.705110057810027 -0.4067580327605999
