73
105308
C 2.6000811415740634 4.301125346291442 -3.027471133792781
O 2.613293756264159 3.0120506721936207 -2.4234978401338356
C 3.496127454850792 2.619317356347674 -1.406287015468162
C 4.507017635868724 3.470948533883573 -0.9227314519401597
C 5.363285034755856 3.0412460611968433 0.09297453310976035
C 5.221458105373765 1.7646342886653203 0.6398831034139298
C 4.21736274033798 0.904026862585934 0.1733388321963938
C 4.069262769731921 -0.4325162979851463 0.7781085414079438
N 3.136636571023182 -1.2359130619486038 0.3680828374238332
C 2.8692198923544705 -2.547238833775875 0.9442248793806609
C 4.080895825421386 -3.4999533932056663 0.809596485016871
C 3.6730129157618214 -4.991336997606909 0.8397488354796269
C 2.3644835073879014 -5.220155854315685 1.6158419505610757
C 1.1840837186907125 -4.408908823912934 1.0289433436415965
C 1.6428147702213296 -3.1500145989733626 0.24883665135491093
N 0.6135242151056368 -2.115173581942107 0.1549269672017975
C -0.6658767472998618 -2.3089862804027392 0.05245139608937425
C -1.5852735531087536 -1.1545325630998868 -0.002804541962612865
C -2.954134287507608 -1.3768063727397637 -0.16856557622170362
C -3.8668534000432064 -0.30349417575917514 -0.20409842445957946
C -5.3892295958614085 -0.5135774138926202 -0.3724442656938349
C -5.768802999119819 -1.98451271551138 -0.691801225409367
C -5.9162468305914455 0.3605086549789231 -1.5366931914910131
C -6.1057277466769415 -0.11140162720126487 0.9353436815373158
C -3.3598594382330136 1.0019894598263313 -0.02131300510964045
C -1.9761642090367861 1.2678070781383035 0.12823997699813203
C -1.4378248183611877 2.715804625963909 0.3015760043767443
C -2.558482060309553 3.7869894477383887 0.2868608753083203
C -0.4698585907754301 3.0644737464196345 -0.8531585397593248
C -0.7050809486684425 2.8504907544982556 1.6574201080216697
C -1.0955902376229807 0.1551099016160955 0.1237852436696502
O 0.2795286368537134 0.3269608559949084 0.25096999949330057
Ni 3.13086617704599 -1.2140241705844301 0.3501657596878128
O 2.3591263334058485 0.4899313474117719 -1.3267283779061427
C 3.3581885706632644 1.3366229418629354 -0.8555052516607207
H 1.7865713576856235 4.341130129015179 -3.7785455056216635
H 2.4081489335787447 5.081292415624277 -2.2600736444906415
H 3.5650941698287526 4.4954658058700305 -3.539841350138978
H 4.641127650363384 4.464928634085965 -1.3252820064759303
H 6.140199606505056 3.6991748682522596 0.45742258280584625
H 5.8927556122264155 1.4502554476493341 1.4311200587178086
H 4.728141986020471 -0.7317136284756021 1.5876086794589377
H 2.6354993848354322 -2.4095463730936126 2.026372302654243
H 4.790720772465838 -3.296357045207647 1.6410286136298715
H 4.618141450022087 -3.300671617015131 -0.1451843686733974
H 4.489459646737455 -5.59291649948877 1.2947063013990614
H 3.5321716973290513 -5.350585920082491 -0.2019061832754039
H 2.116001618346091 -6.301619701053345 1.6033671019989624
H 2.524716265271716 -4.928091983259875 2.6769027237121796
H 0.5089634811607481 -4.1187474314774155 1.8646850148997047
H 0.6060661142055096 -5.0609347229815125 0.3382766052767632
H 1.917223936566149 -3.451139002366273 -0.786909184338375
H -1.0673107653927247 -3.31480750246906 -0.0033442132851013145
H -3.286206581974945 -2.3998969821144667 -0.2700147142817989
H -5.503310315608049 -2.6579909856129857 0.1520023178646882
H -6.8644442945259545 -2.0830408683083204 -0.8532953214848173
H -5.255920522441725 -2.3319640386584672 -1.6169587403267185
H -5.356082175881766 0.138002754782896 -2.4701625754827643
H -5.825548119177215 1.4433414108493876 -1.317363105748472
H -6.993593293235559 0.1647905372964232 -1.7209708489865527
H -5.927904696813869 0.9580167515687348 1.181977858386946
H -5.736700488339783 -0.7305368561199089 1.7837656221700737
H -7.205593054520066 -0.2603428233007405 0.8459339679901863
H -4.0691710467841515 1.809458707775499 0.0034511394848228895
H -2.1343366821639966 4.806908080790237 0.4067990817885411
H -3.110492608149469 3.771783410093792 -0.6768750195886397
H -3.2696568069637415 3.6316976486969277 1.126664780366143
H -0.15686762927116465 4.128890876870646 -0.8008616242023433
H -0.9646288637332054 2.89671908986537 -1.8319943326333403
H 0.455047283769952 2.4614151733318717 -0.8195053102522128
H -0.38965840457258316 3.9020822070744026 1.8337193201668598
H 0.21067103929238215 2.228725675323046 1.705432318459239
H -1.3745599661369707 2.5453331835130277 2.4896314936944313
