34
106176
C -2.776895553623197 2.6373579257520863 -3.075003357753409
O -2.284026178565739 1.380198420539056 -2.6285590230564972
C -1.3448888487807356 1.2613409365503019 -1.5987401447089746
O -0.9138671128810438 2.2934940605448935 -1.0105251541920384
C -0.9111307953418942 -0.12242733588738017 -1.1503275871185115
O -0.8723709679220045 -0.9608623379121943 -2.2816812531145394
C 0.4380196654806832 -0.04948857900729713 -0.5485956736601156
C 1.5364936020738913 0.0025887631805393157 -0.05452487527372429
C 2.8457894035150932 0.058772269117458587 0.538132286709836
C 3.592643128147699 1.2435196014285526 0.48257061668166984
C 4.8655200370324305 1.2956416371524493 1.0604620187593323
C 5.39400188717051 0.16644660506099837 1.6940467648845308
C 4.6501935286177165 -1.0164799061405696 1.7506272545942911
C 3.3770564696208147 -1.0718776804704688 1.1737269503786047
C -1.8652359206437423 -0.7370553832971705 -0.1171007790201512
C -2.860000211543855 0.041104527208516276 0.5246981379223041
C -3.7154949934253234 -0.5225609109113095 1.4731858469907304
C -3.594881363105749 -1.8672212535125363 1.8168776093568793
Cl -4.671253669040893 -2.568572800980622 3.0114510023169396
C -2.609694393952152 -2.651344874177665 1.2182005935943174
C -1.7429707115446285 -2.102525659460232 0.2651968051595876
Cl -0.5017506707646026 -3.168042917869717 -0.394315150724994
H -1.9398491037742687 3.2607826929487667 -3.4546662878532097
H -3.28838860361926 3.1625912921134396 -2.240702325208116
H -3.5043356743145067 2.4728996867570587 -3.8960975729561937
H -0.21019935112936347 -0.5888931379027046 -2.924113139185691
H 3.1917038078315465 2.1236160352544537 -0.0058465044901933804
H 5.441925099534861 2.2107183368440304 1.0173116754873175
H 6.378944005368595 0.20807343912081375 2.1408151273846356
H 5.059997868953084 -1.889844706719141 2.2413002985337505
H 2.808243819323861 -1.9928180918511607 1.2228210226744733
H -2.989528704157549 1.091295683645335 0.3046141534347239
H -4.472274655446415 0.09192674337112132 1.9443815225174024
H -2.511494839093859 -3.6923530804896996 1.5003791409350336
