41
107460
C -5.070694482245954 -1.8092925845325007 1.003159393864927
O -3.6755974032798635 -1.6648462549450238 0.7577872813552139
C -3.087893268649057 -0.5370953918721689 0.1654446239266538
C -3.8409120630075066 0.5744235625297526 -0.2502041243903167
C -3.2118916199890593 1.662582305584026 -0.857010496022921
C -1.823597276535593 1.6644363011460277 -1.0528900098900413
C -1.0478413486019584 0.5833974992040057 -0.5793209312143743
C -1.7011233398962196 -0.5292813709844475 -0.015573665397684459
C 0.4622913072236133 0.5434540609804626 -0.8145952451940597
C 1.248114974784212 0.01620397093131351 0.3888195805072659
C 0.8380728642426433 0.3967533722956916 1.6844075737346829
C 1.4946381178115555 -0.07648104944071797 2.817418168222778
C 2.596743397220648 -0.914504588298207 2.690874385799152
C 3.080704082730644 -1.2574571040569718 1.4225851023088254
C 4.224147527140792 -2.0647157677500694 1.3128263534430262
C 4.747583684795567 -2.3774382648113694 0.05966635722551596
C 4.145093706469679 -1.87836803142233 -1.0928635904360593
C 3.002949279087486 -1.0787416719768697 -1.0042653190268092
C 2.429758659122756 -0.7724924923189318 0.2523783677783965
N 1.012705135984436 1.8577695816920103 -1.19610286318074
C 0.21383775607893551 2.4896538539371753 -2.25048777125846
C -1.1786205988474767 2.8456025013399766 -1.7255208200833747
H -5.633217568981196 -1.7648468674828726 0.04669894212948317
H -5.255087191393183 -2.794486418662787 1.4782719532956787
H -5.421959040295449 -1.0114169712830823 1.6910775178485324
H -4.914122159974569 0.602431094598151 -0.12041299449991026
H -3.8107436617498927 2.5031943321793766 -1.1858940295885276
H -1.1287512442364227 -1.396108765675673 0.2916218396905437
H 0.5764343109949707 -0.15100641815862179 -1.6700966990068447
H -0.009378909412011341 1.0562593272796368 1.8234503307812266
H 1.1453434369071673 0.20920164101960015 3.8013641267753067
H 3.088552251110257 -1.2742813072903523 3.5871057774875794
H 4.719730452518175 -2.445343341201194 2.1982864222715617
H 5.63255293777304 -2.995879342323799 -0.017697529642534706
H 4.569791800453541 -2.106011541556466 -2.0622698780790323
H 2.607537844743183 -0.6915034243344843 -1.9300984583283418
H 1.021937037248543 2.4916209140931667 -0.3610421623907647
H 0.7245326403193426 3.416232573503072 -2.5899106329463173
H 0.13160851846078978 1.8109242298814512 -3.128767012495201
H -1.0980152070028764 3.6764526134110507 -0.9916948481330559
H -1.8052153391236951 3.191005234772989 -2.5765250172409777
