25
108872
C -1.343892524175636 1.4536361478876343 -2.1480967794223025
C -0.9961069103713274 0.3870014115456146 -1.1044097807902609
C -2.2163091047532597 -0.4982545971450807 -0.8327536802757971
C -0.5476268111734232 1.0718814902400617 0.205388310585398
C 0.9078042379962743 1.5321567731394234 0.2292330494359454
C 0.4624045765283892 0.3861030882802611 1.1327368715248898
C 1.0189005050607343 -1.000286157593342 0.7596951442578281
C 2.1263813898026402 -1.402893139516505 1.7344428809578682
O 2.651316985963175 -2.6543106636352776 1.3835073168655616
H -2.1619558477638248 2.111309548209192 -1.7823858102172736
H -0.45259460733287804 2.0798852116364115 -2.3659515262485313
H -1.6670804136377566 0.9724692188430052 -3.095977322593591
H -0.19723869032404193 -0.24796300931728654 -1.5388943401586361
H -2.537529629954546 -1.0053294361372587 -1.7676181962706763
H -1.9689606011941392 -1.2796506051105676 -0.08479790008558284
H -3.063002261378623 0.1082108765527978 -0.44449890099409883
H -1.247307911907679 1.7757207618945319 0.7064474228853999
H 1.067522854888737 2.492593261857145 0.7629339072087318
H 1.5140964393092966 1.2526993789588825 -0.6591408894756017
H 0.3431767085031118 0.6516191968055812 2.205479459862709
H 0.19834857780562082 -1.7449530717051487 0.8245595006381031
H 1.4399722807494761 -1.0278584701549844 -0.2674802903625215
H 1.7355293257974092 -1.4280186850771304 2.7776780782752852
H 2.945063800605113 -0.652871743700512 1.691723520269471
H 1.9890876309571557 -3.3328967867574484 1.6781799541276816
