28
108949
C 1.6800016748366697 -1.9169894066681366 0.9821549843748638
C 0.9678957129762057 -0.8790247470863951 0.16284208640569814
C 1.5781127769542105 0.23343448981648846 -0.3731158856902154
N 2.985685705047156 0.5126234608730961 -0.23883216546452396
O 3.8067757072970303 -0.37906708412018125 0.05672420297717459
O 3.4617666026591354 1.7599057276279473 -0.5704614700543648
C 0.687575928182015 1.2591582412006905 -1.1130361135475617
C -0.7986746987491764 0.7742179232116588 -1.1540785047760356
C -0.7394086974287835 -0.705396863963585 -1.576872623241588
C -0.5402746914209755 -1.0222947123679333 -0.08355688911970584
C -1.250286113726132 0.3126094884887268 0.2566288328360857
C -2.7883610819525817 0.15270010026450992 0.35520829857001013
C -0.7616928574472063 1.1136930863500691 1.4962870138402034
H 2.408685854283581 -2.4664390987791056 0.35074893736265145
H 0.9605890629215943 -2.6561651964207713 1.3921926796946393
H 2.1982940845469905 -1.435968189373168 1.8381183553387552
H 1.060678677258092 1.3831097399863699 -2.152163607890725
H 0.7448630273642582 2.247721489174576 -0.6103277261009524
H -1.5065412691148943 1.4130476140028319 -1.7251793807232318
H -1.7073234061099418 -1.0812631136628303 -1.9734357164580465
H 0.09955247761926658 -0.9891654759092356 -2.2546379917468036
H -1.0270122576662568 -1.9537710271791888 0.27899687216888075
H -3.052964248388443 -0.3959888567100405 1.284190153778003
H -3.270927596856301 1.1528420131413986 0.385789358945504
H -3.225727233096826 -0.4036628381808748 -0.4981350450766435
H 0.3308454756196246 1.260709299741681 1.5679226245765097
H -1.2284569744378055 2.121407579792482 1.492442523827266
H -1.0736716411705052 0.5880163567489196 2.423586195194153
