21
109438
C 3.2817704200615507 0.7662552505876999 -0.5513226507952224
O 1.9236825369548516 0.8379682563636107 -0.13513642952723048
C 1.2385115518414618 -0.26087030371781145 0.39220899941880305
O 1.832164275245537 -1.360588449061093 0.5673285951779339
C -0.1917492795782905 -0.10249556846416764 0.8289838917851
C -1.0595790867837864 0.671160747486097 -0.15909691564204717
C -1.8091049198891165 1.806689621888873 0.47854519658362393
O -1.7216348210113939 2.9338834017327797 0.01951597383768669
C -1.9384428079712386 -0.5566436303717116 -0.36410540755786786
C -1.244343092019675 -1.8156827548395884 -0.8284475484845084
C -1.0391354355799098 -1.3535072577602427 0.6012063118377956
H 3.391658765763964 0.014142282150787918 -1.3611109745336158
H 3.9288596222110934 0.49028842840025777 0.3080739801392333
H 3.5979247682340483 1.7575443813736786 -0.9358054252142368
H -0.2643223948454755 0.2544281771982678 1.880453690186868
H -0.5423403827048293 0.9638621694189585 -1.1010599275968052
H -2.423902998875036 1.6339180822516255 1.3568847068576149
H -2.9830956452537793 -0.5901220153547956 0.020281562494955316
H -1.917585598566225 -2.6919981517928164 -0.9301661376602991
H -0.3842597681307905 -1.6508270252923165 -1.5119849697390042
H -1.6750757091029578 -1.747405642198094 1.4247534784312235
