42
109639
C 1.3669399365369534 2.749370973050083 1.107373224231942
O 0.5729049199676303 1.582822433583668 1.0636093501641803
C 0.6902257185788313 0.9322159220798298 -0.1943904026412629
C -0.7046014577579378 0.320876179505985 -0.6038277675801894
C -1.8905088640346264 1.2719484454825232 -0.4007467607322585
C -1.7736501464887136 2.7329508401115796 -0.7635569466160452
C -3.1241305052170225 0.8067239971562363 -0.08704646502744806
C -3.4314264207054905 -0.6391621420220585 0.22691539268735944
C -2.3571225299977296 -1.599355512992338 -0.31807182601671774
O -2.5621831103196793 -2.9290037261774975 0.10241749766485791
C -0.9563930708007853 -1.0736350731844932 0.06375462586698137
C -0.6657150573677286 -1.04902363429897 1.5782633811711575
O 0.7354699736317309 -1.196171615873308 1.7648525274406073
C 1.2897719606447533 -1.4814922305192377 0.49231422298290045
C 2.377948731648321 -2.5531918517892787 0.6261806174445111
C 0.1527307002969291 -1.930052558623889 -0.3398150647423607
O 0.20824343231182585 -2.631591986574599 -1.3400448261954163
C 1.823022478249009 -0.15696814598949707 -0.12491368207369768
O 2.308161456573036 -0.41633248221885216 -1.43550318566901
C 3.489586070406495 0.3132312252291894 -1.685219506088885
H 2.4296896700405344 2.535115439800458 0.8599695540583645
H 1.3366417649620728 3.1590018855280246 2.137560841082424
H 0.9631238258545592 3.5265114906009782 0.42314474480921843
H 0.9696961711038453 1.6482541085558984 -1.0039424886221489
H -0.6574650155460104 0.15030854233737537 -1.704629098109261
H -2.5922921741869303 3.022730301926569 -1.4568627959145264
H -1.8439465428997017 3.350312449897588 0.15640110100334068
H -0.821191659978442 2.960818185307016 -1.2787002920948252
H -3.948239197089304 1.5096387623828813 0.005732891172105446
H -4.414835348358449 -0.9041858311396886 -0.21673897662929087
H -3.5186431127992046 -0.7383142551471513 1.3301437930600872
H -2.4374051850286693 -1.5946242168043399 -1.4282741949842561
H -2.850791456944688 -2.925841010686766 1.0509002674681023
H -1.1651128102351 -1.8883021675264275 2.1044929682002516
H -1.0215217574977535 -0.1098680196050426 2.051540021221922
H 2.806081780654968 -2.8089893712474288 -0.36655448667138946
H 3.1953997157767984 -2.184282976960341 1.2813808688134505
H 1.9529437796160458 -3.474468985924569 1.0792055618075975
H 2.627851362756125 0.20378693340467718 0.5617442062466217
H 4.3229165997241905 -0.06275670447544143 -1.0518697870824993
H 3.3393814077279873 1.4033735461049635 -1.5210701550782841
H 3.7784439661913214 0.16762283773568692 -2.7461189500282086
