26
109965
C 4.544303102089961 -0.16355102834815008 1.4229120193436073
O 3.128854215094474 -0.30012638268595754 1.3906123757708122
C 2.4006426035479307 -0.3111966933066207 0.19728783191599433
O 2.9907131841275034 -0.20761756222094205 -0.9138103033377293
C 0.9055331695453984 -0.4655221850969598 0.24729542018811335
C 0.20329505580887136 0.6842234973971287 -0.5012769541718495
C -1.2935226318359383 0.614505322643499 -0.3365824591908316
C -1.8997363395017453 1.111562893396237 0.8291347452441904
C -3.2851647237147508 1.0234357522315245 0.9960004818297072
C -4.074998686352874 0.43308554938087573 0.004032706597368148
Cl -5.8126685696005165 0.3216772127957796 0.21583255657096037
C -3.4771962898366935 -0.07163788011118634 -1.1553909661026078
C -2.092036380140417 0.015223421083670748 -1.325187376039712
N 0.5112562475626242 -1.7706733440499758 -0.28385966267136925
N 0.7155880379202539 -2.0841791229722637 -1.4581123666585327
N 0.918708021099103 -2.3970370243380104 -2.630122767626168
H 4.888399976256602 -0.18207253370733453 2.477302190899365
H 5.019946727311819 -1.0038731693065115 0.8741518641367066
H 4.8435776221601765 0.802271534154446 0.9634119175286091
H 0.5964077690401145 -0.42502577072978964 1.31468053124411
H 0.5651430928181372 1.6580315518166096 -0.10283270110805905
H 0.4714719578455664 0.6603117224897908 -1.5807717180751097
H -1.2988110527831984 1.5648739288431486 1.607857115394388
H -3.7428027329836446 1.411611127028229 1.8970162999882545
H -4.08395875845717 -0.5331599261109933 -1.9240174812421273
H -1.6429446170215833 -0.38514089027624376 -2.22556330042809
