34
110356
C -0.8914533864902557 -1.4798215359076987 2.1715727135623717
C -1.4413335944873351 -1.5461055038726927 0.7361657882773214
C -2.974237264456278 -1.6379241019030115 0.7573015965576455
C -0.9369825750523654 -0.38780465173737905 -0.18143482725755347
C -1.4520436906085357 1.0057318150619041 0.2586311263054463
C -0.7644425840599973 2.107163808300595 -0.5527660079411046
C 0.7717576186427955 2.1340072243401207 -0.3280287048434631
C 1.4915733112436167 2.5527949321246943 -1.618103771321501
C 1.3450968025343808 0.7997282324381387 0.2173003197951133
C 0.5825201452894051 -0.39786377505951387 -0.31818897093408116
C 1.1729327079006535 -1.4272058745206109 -0.9621890563959744
C 2.6236591654704555 -1.6666603783093448 -1.057913047406884
O 3.0836532527688796 -2.2498273760054177 -2.075054853570786
O 3.4771577855294553 -1.3497022721058745 -0.0049138217636352614
H 0.21706752931838225 -1.4286334732953165 2.167723591133148
H -1.294966398263299 -0.6053111335771052 2.721789076927597
H -1.182315665614544 -2.39705689784897 2.7268028213640303
H -1.081156212117024 -2.503149736275149 0.2983904170157621
H -3.4193135094990237 -0.7758349498908244 1.2974207545623193
H -3.3742640062779543 -1.6633865600946438 -0.2786291440573634
H -3.2909717718080365 -2.57060299915184 1.2713252060803344
H -1.3524065481365137 -0.5654966366022862 -1.2000857713782145
H -1.2617074564142028 1.1883683891478267 1.336600932480643
H -2.547599239311496 1.0749081941281875 0.0871782412418374
H -1.0044499968130176 1.943286118951764 -1.6275224103333572
H -1.1956410015554946 3.0924488751517014 -0.2705710264006739
H 0.9895608618637631 2.916638982950492 0.4331435467128374
H 1.0796505889554793 3.5147435867806247 -1.9915624100056064
H 1.3655418562777586 1.776403998195604 -2.4032556918565913
H 2.5764016888536405 2.6953982095785225 -1.4257389813598225
H 1.2476174920750698 0.793272640900662 1.3244560536357934
H 2.4294943066859123 0.7641607482948325 0.0024420909665180683
H 0.542182547874708 -2.161510278904217 -1.4496443750086232
H 4.4694172396810155 -1.5451576212837776 -0.06264140478348282
