39
111039
C -4.54853898421659 0.2891104663020745 1.9531568458764104
C -4.56846603225165 0.46744648250047305 0.45314305819839246
C -5.756633984089848 -0.01840626837256884 -0.336206883424275
C -3.559212643901889 1.0719838344227683 -0.21170044561939874
C -2.292054242646831 1.5801812099140737 0.4301672696712455
C -1.228421008846261 0.48131177714129403 0.5968798809307868
C -0.6690648509518946 -0.04565023214864479 -0.7494210133801794
C -1.4179448097450746 -1.2952223267748297 -1.2198182388938825
O 0.7110701235469692 -0.38544376812308606 -0.6057390398304602
C 1.7412059689806807 0.5629752218394842 -0.5541203658667258
O 1.4762318781090278 1.7918545194303381 -0.6681232269503505
C 3.1401262817318063 0.11915562846710569 -0.3684220998648235
C 4.189101394057636 1.0531183618363797 -0.31534649001805826
C 5.509316584075093 0.6286820399967702 -0.13891593432013546
C 5.809504614932376 -0.7378723005361101 -0.011619705702138092
N 7.17014295888855 -1.1710555057713266 0.16996427487263385
O 7.442662098972033 -2.3842676510189853 0.28368282326374245
O 8.195050987471033 -0.2540758932952163 0.2213596447177157
C 4.7594915160789295 -1.6715598063125834 -0.06462869289762298
C 3.439284687510748 -1.2472889254615782 -0.24105522933759346
H -3.680268260811638 -0.3279400977425553 2.258557057168145
H -5.465770318817804 -0.22126909881044443 2.313234928635504
H -4.496347176478478 1.2787749013467131 2.4529328663770253
H -6.231242921405111 0.8353929154378924 -0.8647671484541148
H -6.520090065138093 -0.4904966558134325 0.316437966119223
H -5.426661137976199 -0.7702432000971773 -1.0842720717662475
H -3.6458760768416445 1.2047307612530676 -1.2875747599515166
H -1.8747058359352342 2.3932109435253173 -0.20245724282548416
H -2.5134776583731617 2.0390944193521987 1.4165691790314232
H -1.621548234221039 -0.35408866867545125 1.2132878500121504
H -0.3981017232812772 0.9272847996471899 1.1856636795600113
H -0.7672157117466859 0.7280396854160666 -1.5439849440229625
H -2.489019576345031 -1.0769525074382842 -1.4019292238810264
H -0.9752238034977321 -1.6575042661517756 -2.1718386652846418
H -1.3356707973435975 -2.105381123301624 -0.46404000612549173
H 3.9908773305940892 2.113511278807709 -0.4100328536263369
H 6.2953491865768925 1.371761713586517 -0.10214650017042944
H 4.958529347770567 -2.731333606591502 0.030452366592813612
H 2.653610895566329 -1.991569057786256 -0.27732890881333067
