47
111193
F -4.603758784672348 -4.174858722553003 -0.8051863940828253
C -3.742560081477698 -3.1339645037774146 -0.6911416183240866
C -3.627669400555431 -2.4518090204625254 0.5226437137689968
C -2.741139957145595 -1.3777576022245692 0.6422318408037189
C -1.9512641711012217 -0.9800071514413773 -0.4537534206355542
C -1.0019031576977682 0.20454056150385602 -0.3467149392472911
C -1.8471137131843414 1.4685268353982908 -0.3142287038497273
C -2.3585546186260165 1.97775453730424 0.8955916770407432
C -3.163059893622273 3.1209448852421997 0.8976578900434101
C -3.4757207251916755 3.7605356493102757 -0.30443775223633485
F -4.257560720396128 4.868168848440443 -0.29991288025910756
C -2.9867832862324666 3.2551782324193272 -1.511703014885184
C -2.1813028341318335 2.112570935816772 -1.5189663016114494
N -0.09922165580277319 0.10316578348487686 0.8362400923993911
C 0.5666639673144386 -1.2253309573503595 0.9107356863104159
C 1.8424571460688743 -1.1790013829854853 1.7643343303744068
N 2.8609469898582214 -0.25797307320389257 1.2002789900598723
C 3.89664278613899 -0.9949579356984504 0.4465003698794238
C 5.092789755277952 -0.08865084155326107 0.13482689938898973
C 6.012727028268514 -0.5694619492024469 -0.9194690959549572
O 5.047692409570068 0.42642582700018744 -1.174905305720175
C 2.267882120234274 0.8274992447955495 0.3808638379895491
C 0.8772253490102849 1.2282669225956524 0.8948785560012451
C -2.0829094534568724 -1.6681701463972336 -1.6733758434201873
C -2.971559593085202 -2.7413701022899097 -1.7881841860148895
H -4.225876886082737 -2.7543442695772957 1.3724732100022414
H -2.66276201814311 -0.8647584261436332 1.5914827440258872
H -0.3615706130859846 0.23648748173507192 -1.2594902186921915
H -2.1307000893055563 1.4963876591287828 1.837673826313731
H -3.5458705201884557 3.509052962805173 1.8327748663560302
H -3.234513915390155 3.7461623327394267 -2.444002964032204
H -1.8196309785782183 1.7281793926426285 -2.4646537731678655
H 0.8338043347328372 -1.5987088986689282 -0.1041919043863674
H -0.12691071159785183 -1.958120613465775 1.3745377135394812
H 2.2334903077262864 -2.2134905975628905 1.8893676370585604
H 1.574915454336016 -0.8264154498220178 2.7837514851493457
H 3.4645602060943155 -1.4416332808977783 -0.4789751473759808
H 4.29435425244295 -1.8270437632375272 1.06779644497885
H 5.491373553897331 0.6366677576957624 0.8751991377825714
H 7.036600548861855 -0.14162559918259063 -0.9081127420039234
H 5.7574385695429875 -1.5185550194045068 -1.43678310622585
H 2.930709207974146 1.7182074215995025 0.4265967544366836
H 2.1724878569382895 0.5265436586483234 -0.687363138623558
H 0.538688520721743 2.118383231332008 0.3222930982593505
H 0.9690715321315119 1.5595073074342545 1.9516098641818875
H -1.4991475583480878 -1.3743255554018963 -2.536750282919183
H -3.0634565600420944 -3.2668226065678376 -2.730037932475889
