70
111248
C 6.865148469552905 1.8858046519188205 -0.48818574155207733
O 5.560411662651659 1.4834517298154817 -0.8821211966443276
C 4.4211375491604175 1.7853121879392673 -0.12916112063829785
O 4.539997963614128 2.4103208356923784 0.959673607741258
C 3.0711992491119093 1.3390903517501112 -0.5694385019639007
C 2.7433196849896375 1.159926320501605 -1.872321658062782
C 3.708881316555583 1.4282383636762348 -2.995669279227998
N 1.417786544515204 0.7296573356275402 -2.2139687074715084
C 0.3456015118988908 0.7568178800741386 -1.2639985308072335
C 0.6251015185310498 0.9493720473480117 0.04404165348978717
C -0.4649056563856131 0.9584901828591835 1.087501879588814
C -1.732568404891036 1.622267178541096 0.527486332457898
C -2.9541179798039936 1.6257340614151896 1.51119692256448
C -3.3327556864137287 0.18756103412225242 1.9622188571741848
C -3.2874302464110254 -0.8080408317786186 0.8241547576448645
C -3.5775444121988023 -2.1685767668178655 1.033216430811012
C -3.198240139971921 -3.131229696803773 0.07142584516533083
C -2.4426914498350727 -2.7439477182780077 -1.0612309978294798
O -1.9605325372711766 -3.656052627972817 -2.008477922947039
C -2.2823540610680046 -5.04337972710884 -2.016769504214431
C -2.1654171675831515 -1.3874283451959135 -1.2201286311281103
C -2.682442571829789 -0.4477534279167372 -0.382936122221346
C -2.19877168409066 0.9172244348052596 -0.7555431699586731
C -3.356570460753441 1.7308819316647197 -1.4177876653376926
C -4.0013346312405735 2.7591775497612514 -0.4679020623147759
N -4.1793900837956 2.2148818843482405 0.893274131550973
C -4.797991846750144 3.221738263830412 1.7677795639450538
C -1.0676770748185054 0.5644049281084348 -1.7856155733256558
O -1.2745002869353972 -0.8177433102834991 -2.104339475709168
C 2.0644266145334367 0.9984546462315008 0.5183789246449761
C 2.4477765289926015 -0.3180049055405453 1.1664777712044463
C 2.9882829240994537 -0.3344653772668443 2.4629648627574388
C 3.3755514305816594 -1.5408693947666687 3.0523193868342275
C 3.2291117121829043 -2.7416068970042495 2.3542931241122425
C 2.6906040192497063 -2.7508154641342246 1.0546093216486236
N 2.528036232677078 -3.986226290272212 0.3346333226108015
O 2.918122773791071 -5.065388537484775 0.8242244346179206
O 1.9331646292337685 -3.9995478949536585 -0.9077731311572013
C 2.311448027760229 -1.5318588938519817 0.4659244659442095
H 7.5997500698242755 1.528913024587665 -1.2396078074391916
H 7.115878818705209 1.4421427071556525 0.49881234600073193
H 6.917772620057823 2.9928267804282815 -0.42832689033967614
H 4.4816648648937685 0.6333963119412931 -3.0275267929552827
H 4.185445848157202 2.4234152666735853 -2.8698164068335474
H 3.1855283985914506 1.4351133846829849 -3.972706303450195
H 1.1972503305704782 0.49679969417730274 -3.20931599110546
H -0.6494470095514159 -0.09069633437235095 1.3989971746296304
H -0.13113998336442495 1.5196323229450517 1.9862733316317063
H -1.4535537791538313 2.674124936708619 0.29480571709003833
H -2.6451221278348296 2.1992982161171817 2.415076370840185
H -4.34636402221751 0.18320207615066494 2.4175152643993045
H -2.6191064898838974 -0.14353148245365788 2.7477657700471996
H -4.037887221526917 -2.4908127715790007 1.958362140953778
H -3.4224560835497675 -4.171760676179919 0.2602269622105592
H -3.3837965572648754 -5.18099008656787 -1.9660989231376342
H -1.9308404611088135 -5.4918633408277575 -2.966726165617268
H -1.7946977772562571 -5.554080943861116 -1.16221006824358
H -4.142561229277435 1.0485729371993062 -1.8070302767253617
H -2.9835213796613127 2.3051597034762366 -2.2909430981405428
H -4.989057595207811 3.0467790052790322 -0.8882951579421301
H -3.378863330619379 3.6826502847854217 -0.4342152135017263
H -4.133804145391711 4.104456736571971 1.8873559774005702
H -5.003190046176624 2.781154903892626 2.7664511355240204
H -5.770801440928017 3.550723267628339 1.343832512384682
H -1.1623511779816504 1.1574821868683378 -2.71832605250828
H 2.1109726657637613 1.812009108253021 1.2743200484626016
H 3.1166804743042418 0.5865946278810226 3.018123351630371
H 3.7934436773646136 -1.5458467677293053 4.050981865779878
H 3.53406506571141 -3.665621366265182 2.8306333179566017
H 1.9122350423766115 -1.525115406167335 -0.540814742998827
