52
111847
C -4.804707858292686 0.7690149897208942 2.1198490512633295
C -4.187843398743658 -0.5785846888462638 1.734895800015106
C -3.0982962112989707 -0.4344811967436084 0.6543547132598646
C -1.7444537272094258 -0.7454279527149449 1.3435175811227833
C -0.863994368001045 0.5053749932045737 1.5035585930283517
O -0.3779598816210149 1.0159518149283182 0.2649370655039739
C 0.7768608925738384 0.38158698278491926 -0.316969211606293
C 1.800993179806257 -0.046186668607640986 0.7709728916250994
C 1.8035598462145699 -1.3495424643988825 1.322058342207464
C 2.6784439533391073 -1.6887588738393946 2.3575622909953204
C 3.5378998265510035 -0.7296674085237891 2.892174201726538
C 3.508957215460316 0.5773979089543722 2.407462004518222
C 2.6359985777394885 0.9232631010134685 1.3726845177233031
C 1.434766097927329 1.4015904932265761 -1.265371031298576
C 2.736278793750313 1.1814996543138838 -1.773560251338572
C 3.316219550110112 2.0792895181171467 -2.673378273182259
C 2.6055084462387406 3.2003808173814563 -3.100805119289149
C 1.3093761517409688 3.422061617728239 -2.6357967015973025
C 0.7223101889072638 2.5290655399533883 -1.734727956198899
C 0.3325807118069842 -0.7550901241491292 -1.2559103500182855
C -0.9211414430017351 -0.6829418346555176 -1.9017225585338036
C -1.3154208306892006 -1.6610139860385997 -2.818303492769192
C -0.4476746944494358 -2.7011219488009743 -3.1488952853020065
C 0.8258861437575336 -2.7496972778597577 -2.583044738496194
C 1.2241835750215533 -1.7742449368970616 -1.6649008147828614
O -2.081548353833479 -1.2441231002047526 2.6268417546443628
C -3.4334874591725253 -1.1580029478255265 2.867650413399788
O -3.959371214065471 -1.5463745897100019 3.9436948929530984
H -5.550135477344643 0.628272516401393 2.93137973114562
H -4.022994055259222 1.4783771588163803 2.468109406748983
H -5.324272111846494 1.2092174079253974 1.2424805578756073
H -4.982879103717918 -1.2820585996957004 1.403464680326652
H -3.2806695884635513 -1.1872322862950628 -0.14382145137164892
H -3.1096507142530876 0.5706720846257227 0.17710759035736398
H -1.2016972695500607 -1.5392907302717111 0.7937178057097648
H -1.490376509543154 1.3017761346084002 1.9586357257107434
H -0.07541300634338234 0.34115546334068325 2.2632479912565033
H 1.1176940984414843 -2.106840533190378 0.9706257572746673
H 2.677942169992034 -2.6947441425185685 2.756997838224371
H 4.210861076040775 -0.9940281831508798 3.6975741917714626
H 4.154505026337992 1.3288831657059 2.8434263274861524
H 2.6089633804326295 1.9551033974969632 1.0468631971568372
H 3.310246367443526 0.3169540180246763 -1.4683766526726565
H 4.317753748751586 1.9018872566997427 -3.0434941808151765
H 3.0559840132224863 3.8930520795869117 -3.799904300333488
H 0.7537280287375941 4.284804382166388 -2.980148199077464
H -0.2932347247515447 2.72419065715621 -1.4171156563157685
H -1.5949399254307497 0.14061602053308897 -1.7111340761673433
H -2.2897497209685107 -1.6015320529824333 -3.285898326012951
H -0.7523864959693195 -3.454724637269156 -3.863490690873964
H 1.512678193681799 -3.536531439629788 -2.8672175063788505
H 2.234118889793003 -1.819196569595571 -1.2818580905986303
