27
113368
C 4.4078536366262115 -0.04097386193321482 -1.1116841716112376
C 3.1129253411657234 -0.3061143792070177 -0.40279874117012654
C 2.4846328836401943 -1.5555314596366165 -0.5211320129085208
C 1.2589014820453013 -1.7900161357782642 0.10923730868148061
C 0.642513333123176 -0.7759124423714482 0.8508434304620012
S -0.9246464131561307 -1.0968980438685627 1.6316892008618709
O -0.8516817633899983 -0.43414868046851984 3.001519736096433
C -2.1341736811716077 -0.17199918578687953 0.6989362633141794
C -2.213002293680383 1.2222455099096816 0.8410032282997146
C -3.151677928244223 1.9542369173477627 0.10907471967450798
C -4.018555590579222 1.3004038681793253 -0.7688328425391322
C -3.9491049888948675 -0.08716864078721075 -0.9157783486112693
C -3.011436411379085 -0.8285057304950851 -0.18609234980832204
Cl -2.954314150145335 -2.5727528138160034 -0.4116977250103619
C 1.2596372637418694 0.4777865603126242 0.9587423684848819
C 2.48553100221452 0.7138646027307242 0.32923779943938475
H 5.010334645126124 0.7109415322987215 -0.5587899430016061
H 5.009144821669102 -0.9717280708944077 -1.1904153809332563
H 4.198156799829897 0.3422037433841323 -2.1320921812050124
H 2.9429348414918692 -2.347223828515182 -1.100945212802361
H 0.7854483999035282 -2.7590367477783646 0.013018518188283274
H -1.554759672024389 1.743496230705945 1.5226883443631951
H -3.2080255036886203 3.029011876334298 0.22388750780756134
H -4.745010789106668 1.8687922444639398 -1.3351165371332154
H -4.624534861439233 -0.5861337465001896 -1.599111453398177
H 0.7970099331169218 1.27063657360106 1.5303920044375063
H 2.9458996632053203 1.6905241085687517 0.41421647002159756
