29
113821
C 3.7309023652864917 -1.54877731574666 -0.032236212118642533
C 3.417904630645219 -0.19488164661595628 -0.159007885913511
C 2.103254724152115 0.2445057079686083 0.02579237463315489
C 1.0804281307609387 -0.6716374310118443 0.35644888155060395
C -0.3806884752092628 -0.2675607842542237 0.5264383875983291
C -0.6407223691041071 1.1120732966117646 1.1790335509924246
C -1.5494584174065926 1.8076538208658786 0.14562872491039525
C -2.926970890395798 1.1165812019878503 0.14822641883415316
C -2.638683340722218 -0.22397818969145236 -0.5521211980178158
C -1.1245063151633943 -0.1438839167495982 -0.8272469856748432
C -0.9723875161698143 1.323507572917853 -1.1634182811358038
C 1.4125530632937093 -2.0365305913515357 0.46115763910349783
C 2.7284324985811548 -2.469137047239689 0.2747545525145718
H 4.749252767348589 -1.8853448714370526 -0.17775094866781443
H 4.195434245400591 0.516834122551207 -0.40525638405207215
H 1.9069587419497163 1.2989486983459761 -0.09074008552407407
H -0.8742402029748048 -1.0401393048961143 1.1599434523133407
H 0.278829063332397 1.7078848220137124 1.3457268809877405
H -1.1523264199894343 1.0050892670840055 2.160884746073472
H -1.5956560032815066 2.912533894228198 0.2518395368651146
H -3.319004021794197 0.9678393521832034 1.1780743397806936
H -3.6590276295840045 1.7134827801114239 -0.4391994768884903
H -3.2003325272779524 -0.29160501380334053 -1.5101625878585572
H -2.9099374650928707 -1.0929595464255057 0.08619898776488584
H -0.7766372364953779 -0.841871608171025 -1.6194295956479174
H 0.07765102617729965 1.6403455682427517 -1.3274399637428331
H -1.580013702506041 1.6331639319261821 -2.0458851847380353
H 0.6494022704293746 -2.771600002742386 0.6857150525981123
H 2.969589005809783 -3.520536766902232 0.3640312634599193
