58
115437
C 0.93603340245804 -1.348798632178375 -4.797642784995325
C 2.0628712447543025 -1.3927127789220912 -3.7724053768811054
O 1.6441098673360814 -0.8072825257886895 -2.5403667658622013
C 0.7960541032062959 -1.4538200203445295 -1.6328215225232383
O 0.4134154529897574 -2.6342583585010546 -1.8611503875705446
C 0.28551800198408067 -0.7400520119965796 -0.43404051463678656
C 1.0159833696185352 0.17993843775793958 0.24197076579316767
C 2.4605860992806936 0.48165472393738085 -0.06906879923652767
O 2.5196395984672577 1.5386675996123549 -1.0045867477264387
C 3.8615127151220014 1.9222055484293694 -1.2450242751710119
C 4.403547377653179 1.2166078461439525 -2.487821626065168
N 5.738756486964144 1.7112216895303047 -2.8073163010570488
N 0.3933873894543622 0.9382348412848124 1.290657150310172
C -1.0199402645061728 0.8925412517452667 1.5211457802530666
C -1.762198514462568 -0.06052372929867107 0.9270798549641702
C -3.230063057719359 -0.1093960069910478 1.1472946489371172
O -3.9234543591589257 -1.0066556881590711 0.5969326129266769
C -3.9042442530189008 0.869618842624368 2.066815836130604
C -3.1144318496932946 2.1956989121574773 2.1731095395504267
C -3.7059305360158046 3.0463913868170227 3.3148342881902693
C -3.2248222782640203 2.9984536588897246 0.8556367736860557
C -1.6313193166295796 1.8792794613590302 2.490647011576904
C -1.0985529328667745 -1.1255155851535852 0.07232850772807162
C -1.0330229610924393 -2.430796541368639 0.8414528719728362
C -0.270244252352573 -2.5457205290192864 2.01697958329238
C -0.22945508588449365 -3.755637362516549 2.7108379447623996
C -0.953384302221253 -4.845911384766659 2.2274687186539395
N -1.690023071378809 -4.724233428898263 1.0920525909789274
C -1.7468162323236687 -3.5567980353623097 0.3970884696938235
H 0.07372784079673624 -1.9565540827199057 -4.452805921924812
H 1.2957164142046516 -1.7573225838574291 -5.765385156253921
H 0.604530655161737 -0.29994584029174104 -4.95034048283467
H 2.3983283450627884 -2.44006352175074 -3.6101885947628163
H 2.923501152810502 -0.8157504615564645 -4.168677485858615
H 2.984227677561345 -0.4250081560379786 -0.4437594108894053
H 2.957665851575025 0.7725847499065615 0.884274600974059
H 3.8703018021056947 3.016842295552005 -1.434201510541015
H 4.541301406030111 1.749546764046603 -0.3771483645848603
H 4.440978637607863 0.11840222510370314 -2.315818561931944
H 3.724166353148294 1.4207217917014874 -3.344039594870227
H 6.398882245605899 1.3685761647661472 -2.071559897679663
H 6.036793693642585 1.2636142573676743 -3.704194943888314
H 0.9676815711120315 1.6213345331905602 1.834486366922058
H -3.9802469665470417 0.39158358111563984 3.0680395287697104
H -4.938941415717078 1.0677338195186363 1.7092289943217012
H -4.774987319516927 3.2777107569315587 3.1168686199378333
H -3.1527558054868208 4.005248193620305 3.4155642403059545
H -3.641972910572026 2.506506590953505 4.284314602414934
H -2.8162971345731274 2.4268219507887143 -0.004049461637652675
H -2.6606390385770866 3.9528824161505716 0.9320977229385671
H -4.286719000036917 3.23940597028432 0.6333773001092111
H -1.039861267857991 2.8211826571246323 2.4841518261434805
H -1.547963414093343 1.4429479032442563 3.510216089877642
H -1.7396795842583357 -1.2549672655620736 -0.8285817368810386
H 0.29013919569092217 -1.701271131937698 2.396243925997511
H 0.35735036403902243 -3.847210365861723 3.615631120841327
H -0.9307210723870759 -5.789701481450158 2.7556506653152595
H -2.348020118231537 -3.5082533113645744 -0.501482328005907
