68
115802
C -3.9134983949217443 5.345110314505961 -0.49094268861181783
C -4.087755475715396 4.202982754989524 0.45077283588717376
O -4.849901707706784 4.325565909971466 1.4486429544187591
O -3.352462237174874 3.029600567992228 0.24536382988068867
C -3.4744191813017786 1.8605165427683845 1.0536460950752637
C -2.258789237727098 0.9588245911802177 0.9435303102262688
O -2.045470676767524 0.18551046865655818 1.9173695001790623
N -1.3674539824917167 0.9114425412005939 -0.2085269315074011
C -1.4603011333591696 1.8482584169160012 -1.2959731771150227
N -0.3730074204739508 2.728567368826656 -1.5769071890514885
O -2.4871921313128826 1.8742914303786522 -2.0271290959839465
C -0.2939239824863398 -0.10295965197108854 -0.29314592346094587
C 0.7710707993217061 0.11457492928965692 0.7606152907945946
O 0.7111349383444784 1.1171538788688142 1.5244616770431598
N 1.8855168958097988 -0.7837247640437532 0.8500708043579502
C 2.953214147210667 -0.5818959585769307 1.8319916877352185
C 3.782774012295219 -1.8146157129370803 2.0119170375844333
O 3.57742392885726 -2.9721775730824764 2.4634712206732687
N 4.92379316866536 -1.1248688706575756 1.3612205573401275
C 4.131807374115985 0.06528261620673748 1.3024119839712387
S 4.184016404276271 0.5453568701090659 -0.4596553323604871
C 5.833664151795472 -0.2803186588133148 -0.6683731343524891
C 6.922184281069073 0.754314213393229 -0.32740194234778097
C 6.004959494606569 -0.7036286265477686 -2.14090799220187
C 5.902765989365222 -1.4683093192025147 0.3528492202618028
C 5.588177912485516 -2.8211193532627283 -0.23735412607659287
O 4.431457509826485 -3.0809422965096585 -0.6685384607127016
O 6.592131494647017 -3.7802397173890285 -0.3302405144431512
C -0.8951826889969418 -1.500515540553512 -0.3047037562935001
C -0.8937831858330155 -2.3411228295545308 0.8290208289335962
C -1.504019257479725 -3.5981555658332365 0.7786455838630221
C -2.132673917150628 -4.026777605135958 -0.39265886652876786
C -2.1556155440813254 -3.1977851055711746 -1.5160396462181336
C -1.5437246282440735 -1.9416917612782134 -1.4726841007173643
C -4.750088579040653 1.1086496713677134 0.7221066627740519
C -4.832709500904449 0.25275309830051956 -0.39644682918500934
C -6.023808413591553 -0.4169398430340288 -0.6920193005494113
C -7.148581012060141 -0.2322575438104398 0.11505074395055777
C -7.08347179369184 0.6207662395643263 1.2203152643255266
C -5.893833576836794 1.2908551013360103 1.5217597980694402
H -4.823904156504668 5.982920594924282 -0.49518563610379435
H -3.039646239730576 5.952716887835678 -0.17627863906538035
H -3.7394240630745177 4.960328390226531 -1.519017436791202
H -3.5095565408311695 2.185460433403852 2.118878502600353
H -0.4312225059642238 3.3980490911618833 -2.376809227082769
H 0.4848365369500134 2.7192988802963804 -0.9818907110823837
H 0.24378797574169775 0.009607314565269207 -1.2628856007932079
H 1.97182840129777 -1.5499112459921704 0.1418536510082299
H 2.595183326927509 -0.17621917899924022 2.8038597143154864
H 4.543126435262349 0.8494989891318547 1.9750466755671383
H 6.824638894840697 1.095920383866789 0.7253043177131387
H 6.837632084782208 1.645114470916211 -0.9864389380118226
H 7.933426035839951 0.31273218546153275 -0.46093725393298235
H 6.039438470302719 0.18964269389186778 -2.802058515387276
H 6.949306702444671 -1.2759981729405567 -2.272342651108546
H 5.15084078862788 -1.3286123241608285 -2.476878322968512
H 6.904396883232264 -1.5262132589513207 0.8335994891190168
H 6.405874035584843 -4.688738556591905 -0.7387200069006701
H -0.4314407692275874 -2.0281358312922166 1.7562577090124782
H -1.496754706782267 -4.237491828551882 1.6519526877438084
H -2.6082824273804626 -4.998370256716874 -0.42721360416855836
H -2.6534143036450484 -3.526201011163098 -2.4200312060735905
H -1.5807119975260677 -1.3065775341382597 -2.349709038992984
H -3.976382686637196 0.08278970343109458 -1.032232783550559
H -6.073761337100675 -1.0757254006628503 -1.5491453546793073
H -8.071637604939216 -0.7491475038722498 -0.11418476250445611
H -7.955701172202071 0.7640865558498932 1.846399448862105
H -5.866900903630535 1.9488443010130252 2.383222613628922
