42
118066
C 3.8492578201818604 -0.5502450928292434 1.9336990841776809
C 3.3785414209212745 -1.4116956187804215 0.7623253595797692
C 3.7765085489466332 -0.8300617889377124 -0.6019487267936257
C 3.140482542931197 0.5298594161479339 -0.9738217706390692
C 1.5849542223765345 0.6595463013346958 -1.0182675523843328
C 0.8365965733421258 -0.5525792494326169 -1.6527146718898393
O -0.4566135298012211 -0.7700047216959608 -1.1076223024984762
C -1.1751784716833376 0.4444933016203315 -1.0044293142564225
C -2.679074406757591 0.15571437384370554 -0.8116891910378764
C -2.979852094328299 -0.8851550588880984 0.2864331956054654
C -4.471423761943421 -1.2483364550819918 0.3557716038244042
C -5.330254140947647 -0.11585260842362649 0.91826750772276
C -0.5877731157182584 1.32057944814402 0.1387578650281027
O -0.8639781731312974 2.680739306754216 -0.09762526548290115
C 0.9350375644659644 1.065544992563137 0.32575419260998517
O 1.561243254633734 2.211229082295471 0.8467401281971358
H 4.951068372076766 -0.4156649951386309 1.8945486881224147
H 3.5882664070767176 -1.052189687367766 2.8890047525375375
H 3.361318008993621 0.44430854441779594 1.919612284714109
H 2.2861118193617815 -1.5843963656473379 0.8157408546865222
H 3.857250370256227 -2.4100117307265903 0.8613045863999221
H 3.5676728839595357 -1.5770694833452898 -1.395553400760663
H 4.8812464417204655 -0.7012573916877509 -0.6131628265725373
H 3.5696296751601637 1.317305675149562 -0.31957014493508046
H 3.515415013475622 0.7725282789994026 -1.9927785212744864
H 1.3971319428340765 1.5211627818793554 -1.6993291320963206
H 1.392347340678794 -1.4933521553358124 -1.5003393093582693
H 0.7601617162131861 -0.4146721385827892 -2.7540962880831605
H -1.0983447279461023 1.0058081218002406 -1.9672090723523552
H -3.082469525896204 -0.22327243523702497 -1.7765191430611256
H -3.200234687810522 1.1102315578381294 -0.5857963724826364
H -2.6475330026982196 -0.5207719128140134 1.2804583802416625
H -2.41842128433438 -1.818904040935265 0.06808907293954455
H -4.5865503996460495 -2.1331674257364655 1.0188695165782504
H -4.844440566441762 -1.534265408458623 -0.6516825780658243
H -5.355488153206727 0.7445009225308982 0.2182342315898667
H -4.938145062255099 0.21821263094375765 1.9023554364483963
H -6.37093789955929 -0.47710823667388386 1.0576178605691158
H -1.0699767887508393 1.0580000309036137 1.1025381214279908
H -0.36928289371815864 2.9536403693033297 -0.9136808525481153
H 1.0509755548181232 0.2263713598519374 1.043784034738404
H 1.2847551921500044 2.2802575054353813 1.7979296788340737
