52
120475
C 1.49999915924523 1.77575761621091 3.2920034908991322
C 0.9557819145454619 0.7218570792390179 2.3036587531688313
C 1.946844480108152 -0.42655119549547316 2.2774090960650195
C 1.6654977220999252 -1.6302438207218959 2.952690948422456
C 2.605432315370837 -2.6660469497101347 2.972101072196097
C 3.8344780359816357 -2.506015325064909 2.3274999289940967
C 4.12563068086231 -1.313206917345697 1.6615928114157488
C 3.187777656915989 -0.27722899482386254 1.6351003668065263
N 0.7475816558614178 1.235657512331722 0.9168794001109307
C 0.20800791705454794 2.6161059285893895 0.867567772485
C 0.04338601525172196 3.1119993962714942 -0.5477111939357762
C 1.152145773009486 3.1645967101222388 -1.4113746572936998
C 0.9971962970109681 3.5939958643391683 -2.731585127601449
C -0.2611457183698091 3.986237425926749 -3.195311757967037
C -1.3640784416224894 3.960334140776769 -2.3335782832893606
C -1.2149177062986292 3.523633402270824 -1.01532348255489
S -0.31386025480028773 0.1433808597416912 0.028789569857980687
O 0.05150247312894566 0.21372215848867165 -1.4270386694080077
O -0.12682115038183878 -1.2748913336716103 0.49551986747450094
N -1.9764340613510225 0.6432243389418785 0.24174841382697357
O -2.608105004836631 -0.3560105559055986 0.9715049051550555
C -3.0022657224239526 -0.22511119894162093 -0.3241311196896658
C -2.585334160935147 -1.3745159247889982 -1.2114523901790992
C -2.5173417460970096 -2.67863236975602 -0.6914676431211054
C -2.174269531834137 -3.7636902481849783 -1.514076282602834
N -2.079680036343332 -5.091527833671936 -0.9646338174842267
O -1.830336396180434 -6.0691958032243525 -1.7021639702523437
O -2.2669929320700977 -5.3073214517170175 0.3844552895148809
C -1.929079372190658 -3.533043622425675 -2.880102426212273
C -2.0332898074374843 -2.246918588834291 -3.4110536249728503
C -2.373549764019445 -1.168893420539715 -2.589638115189682
Cl -2.535989112718658 0.42653925918573704 -3.3161322979031747
H 2.4003882841155404 2.279139720163538 2.8780836205407603
H 0.7231713836995249 2.5336908298105985 3.5302143861681796
H 1.7795576390938797 1.2933588309147646 4.255589604738565
H -0.016381585163418408 0.37421289246950257 2.72270764666626
H 0.7184528364372004 -1.7712582635396685 3.456444200085203
H 2.3809432192013498 -3.5910841847882473 3.4917242773892916
H 4.562375705874878 -3.3062177939953346 2.3485626353584452
H 5.08037629374246 -1.1860259580122945 1.1710025922008285
H 3.431807737571948 0.6459550244853086 1.1242387363284057
H 0.9216288052439315 3.3212221875075403 1.33408894943662
H -0.7456748397111015 2.681289171008366 1.435971236077156
H 2.1301205891377655 2.85803943308571 -1.0643752803695599
H 1.8513166764524394 3.620958352991768 -3.394336328470218
H -0.382208101810129 4.311400683888547 -4.219025036031066
H -2.3365281181354796 4.269269345551427 -2.6928675887353566
H -2.080734710416094 3.4985661711108107 -0.36510459607243706
H -4.001431542865322 0.2438477510375622 -0.4252018974160612
H -2.726621713995646 -2.844931080976227 0.35868894168355037
H -1.6639218500183406 -4.349992073589564 -3.539398198370926
H -1.8544078849909578 -2.0894371767365807 -4.468754727943392
