44
120631
O -2.259735099702192 -1.24788512756377 1.2687243992897328
C -3.13887285882953 -0.34774366961628606 1.337534663859742
O -3.4821676816574567 0.17640492241365588 2.580819509823891
C -3.840395798327164 0.11740102598189084 0.11793273973752805
C -5.175144766122924 0.5444250238380269 0.24030918081455696
C -5.9183875494793785 0.8943899451903836 -0.8882304331829058
C -5.3423630045592105 0.8220116872199686 -2.1550938164743663
C -4.013249374183864 0.42169281008527115 -2.2970930208363085
C -3.2414868316765593 0.08809966323116532 -1.1708909894372663
C -1.8105785569728141 -0.2215256517533913 -1.3758683637187976
O -1.4798046125243196 -1.0479666553489535 -2.2691160968968065
N -0.8042187494453282 0.4583770100733872 -0.6081087658802339
C 0.604287820229605 0.04459791397749179 -0.5988265714709787
C 1.5298705089210651 1.247819708914767 -0.6366678045306228
O 1.0362915042586776 2.4018913920664975 -0.5009795645368299
C 3.006109307336381 1.1120019027878645 -0.8042273008297492
C 3.610600118960399 -0.12820460223992444 -1.0994161948236507
C 4.997763049783697 -0.22678515626061055 -1.2445845498521537
C 5.801146531881028 0.9049912848052873 -1.1007226401684613
C 5.219163532426952 2.139800123497982 -0.8121332911772841
C 3.8329225068429618 2.2454709550300276 -0.6652296530822256
C 0.8567423443019588 -0.7987440279453761 0.6316669147551442
C 1.027577037372953 -2.189326615001173 0.5118904328416459
C 1.2188239913719685 -2.978494484908952 1.6499742260531836
C 1.2275820908999153 -2.3907514556714484 2.917267287256771
C 1.0406556079902411 -1.01279221046146 3.0496334417153177
C 0.8504051996991481 -0.21913480086736906 1.9148483418905196
H -3.0196337636831805 -0.14134015867678398 3.4243060568487977
H -5.656635179805531 0.5784172523624069 1.2099847939160107
H -6.948138456399711 1.2101361601109892 -0.7806868158456909
H -5.92325522137882 1.0881919816138759 -3.0287569303818502
H -3.5753575883073307 0.4010043255696687 -3.287948260145583
H -1.1163241662315015 1.1806815022601096 0.08071200547492464
H 0.8121127496401743 -0.5460488287567654 -1.5166789576818134
H 3.024802395182723 -1.026414590570463 -1.2252621862609294
H 5.450313558043712 -1.1837232699790323 -1.470733518116596
H 6.8746277251438785 0.8252774674314217 -1.2138936583731361
H 5.842858269812731 3.017449180789647 -0.7008879793017713
H 3.410382960822644 3.2159912703588702 -0.4373235366053778
H 1.0113255189205128 -2.663674599712299 -0.46141188627063195
H 1.3552657844376814 -4.047460817982139 1.5494804562674833
H 1.3731908134682218 -3.003971417975179 3.7971278619580815
H 1.0380924776920588 -0.5597706113632864 4.032555782070508
H 0.6928358538455185 0.8452342430440037 2.0360046913081855
