54
121259
C 2.0912521311199193 0.2106567952002926 -1.7924007069958166
C 1.7503728529657452 -0.6805633237282912 -0.5798534102207105
C 3.0347359585099514 -1.3619730168547546 -0.13528674156939874
C 4.083380012547689 -0.6120822723405077 0.42997900511478654
C 5.262740146881504 -1.2426293955417274 0.8369012305724874
C 5.408389480581446 -2.6233430515752394 0.6812175075384737
C 4.37516139034297 -3.3760832873407574 0.11733116007434873
C 3.1935030763740824 -2.7504390177707485 -0.2914874831028962
N 1.1321331274134248 0.09643257742961234 0.5420756426570877
C 0.9146786842923925 -0.7278463443584675 1.7605763329804245
C -0.14978077935640738 -1.814748851541222 1.5542284972799114
C -1.3240670950858933 -1.3463395429329124 0.7294881127424484
C -1.2947029096850649 -0.18787405042512295 0.03308169118348838
C -2.429725254210538 0.099041981606009 -0.9255279165868247
C -2.710997053976226 -1.1367478324146583 -1.7951388947830493
C -2.7793707635867446 -2.4588886247701383 -0.9853999746235795
C -2.4900758034631525 -2.2835376094787248 0.5172040468035505
C -0.13300603629377059 0.7863424560422605 0.16026310695370302
C -0.4631890617348232 1.9181289442255105 1.1643547386547823
C -1.441732098497177 2.9172045440602514 0.5969745033988059
C -1.0117241441728373 3.874696047220011 -0.33730244187436664
C -1.9225605308833338 4.782368821848293 -0.8862725337823747
C -3.2673815340628316 4.740216823284302 -0.5086819327971873
C -3.703571408442377 3.7905254147551886 0.41902493099440286
C -2.795956112861258 2.8817264570213776 0.9713408746916454
H 2.824241315388127 -0.2927132057870879 -2.4601856994456246
H 2.52140696722979 1.1792158752012276 -1.459008992438873
H 1.1904949421126187 0.3974741144254922 -2.4133936576858206
H 1.0318918640093238 -1.4504916340587926 -0.9406878692713638
H 3.98279216377727 0.45823522383351767 0.559845772063338
H 6.063865441781564 -0.6605402769853335 1.2736930966554574
H 6.322093795704973 -3.10996471983611 0.9970808077767574
H 4.489918136079266 -4.445531116711641 -0.003371889408878774
H 2.403270985864728 -3.349600864532517 -0.7262692871419726
H 1.8581746414273461 -1.1985906161558586 2.1056939508117325
H 0.615675394530291 -0.08052492737013056 2.609960928118878
H -0.5122173684117596 -2.160628033276957 2.5459621547512543
H 0.31392927577125823 -2.6857737538782436 1.0437110256086528
H -2.1974563287681335 0.9680054690862364 -1.5778194826944396
H -3.342184857582251 0.346636530573527 -0.34147380609153655
H -1.9045719697885926 -1.2208235621457013 -2.5569048742911633
H -3.665751872169654 -0.9828538757974087 -2.34315900655634
H -2.0400640895948783 -3.1758780609091968 -1.405671179082176
H -3.784465596719456 -2.918400759081618 -1.1048811117700403
H -3.386450006042558 -1.855011917717838 1.0158878715520676
H -2.290590036283333 -3.276363350367096 0.9757217234035748
H 0.0028195904859032324 1.291330361577727 -0.8147390038682588
H 0.47415529129977596 2.454925817317336 1.4292125930002766
H -0.8722038798864357 1.4986170875502873 2.108571976306034
H 0.02669963952246239 3.9134522580806435 -0.6426543007951865
H -1.5861898623637247 5.516949301843981 -1.6064523847400243
H -3.9715613794448608 5.442343128208078 -0.9359428167714366
H -4.745955202354292 3.7566461233470583 0.7083002190306381
H -3.1502732702914615 2.145614741946585 1.68228389767033
