43
122092
C -1.179664239760652 -1.9485244836636328 1.1848428950444303
C -1.3698863890712145 -1.409230650185402 -0.2430481604632718
C -2.5964348235041763 -2.066988670127083 -0.8950438524013781
C -1.4247767358627788 0.1506357154644039 -0.33559425848503066
C -2.6010267187539817 0.771985274688598 0.45564121440606287
C -2.663964971969237 2.290130371108754 0.24588958368555416
C -1.338919682301816 2.9610551013031663 0.6500076089612616
C -1.4072816204418703 4.473087671589796 0.4102486425714189
C -0.1623164738026731 2.3429732804147885 -0.1278241186313971
C -0.09183079610992319 0.8196910921842593 0.09075972996780175
O 0.9861908358595793 0.2748426868158264 -0.6727382801659104
C 2.3301598764448412 0.38363152817703305 -0.29840742001694814
O 2.6591166663212253 0.9735321111646642 0.766744796376878
C 3.3846396235991674 -0.24559053789670973 -1.1497029394915281
N 3.910960969748139 -1.4409667716055394 -0.49619512504890734
C 3.1575269756352324 -2.657297725547521 -0.3939468281707097
O 2.0267664141348245 -2.7547829722375585 -0.9424465921536318
C 3.731361893713105 -3.836411051536203 0.3226512073280451
Cl 4.817595635152019 -4.728031740046568 -0.7686038222824602
H -1.1011358184115698 -3.05651526549721 1.1602089477392403
H -0.2410730550609411 -1.5661494477848026 1.6339463092598812
H -2.03753463491176 -1.6802285872490634 1.835189970818526
H -0.4944808350535616 -1.7491642994595948 -0.8373090334965217
H -2.4274602835056904 -3.1601380766936287 -1.0003416611033595
H -2.7696037018577875 -1.6495241591033758 -1.9096625442867783
H -3.5083303107220134 -1.9188155566664649 -0.2798005972244813
H -1.580388199706666 0.3984983633822473 -1.410915954758623
H -2.4912643630578266 0.5661791269852963 1.541878085430865
H -3.5660828821294825 0.3415845020106761 0.1173769130155967
H -2.891168757847017 2.505037213662045 -0.8221801184948098
H -3.493308241030746 2.7024627424769028 0.8612487885522476
H -1.1728944916043371 2.796364032283059 1.738633079330848
H -0.46020392939394844 4.954676405547974 0.7346384220798595
H -2.2394763666091224 4.915959023495873 0.9979786011598963
H -1.5713854483650098 4.693514601324104 -0.6665626511483687
H -0.2696389253563728 2.556657597397289 -1.214819001016046
H 0.7860279140190564 2.808271899390213 0.2175018379037636
H 0.08464274947481562 0.6280287731776123 1.172121187347346
H 4.207382715715433 0.485668981586718 -1.3025473239441103
H 2.972674085163919 -0.5079970389083857 -2.147892798504736
H 4.8756191685405526 -1.4063741507350254 -0.09555390064750295
H 2.9184392130753882 -4.513415870892026 0.6610176117535904
H 4.302427959604879 -3.4983210397955005 1.2126115492034004
