50
122171
C 4.712893820601373 -1.378583047883074 2.118293514558719
O 3.802069620392848 -0.7835065944808398 1.1996238596945015
C 2.403973998664028 -0.9066267219858032 1.2629374863000997
C 1.7785383135603436 -1.6295368101486989 2.285783184676472
C 0.3920653615864396 -1.6519055362909647 2.3971977077907565
Br -0.36239981592575404 -2.6498743030229703 3.8559927130336438
C -0.40853480467921044 -0.9511294664492211 1.4737103130536753
C 0.19808691832806521 -0.3103176153488141 0.3511539658650317
C 1.6191971999526835 -0.2635446608962856 0.2866888990213295
O 2.2417305590031136 0.4763739352751377 -0.7302394717785122
C 3.274424918097647 -0.009537165176321806 -1.5411048927068465
C 3.968802467927689 0.9216788481850591 -2.4742890216191085
O 3.5603404787146626 -1.2377610836396093 -1.5577969580402085
C -0.6611704534152775 0.3837014246297965 -0.7494779885901948
C -0.5607705865733947 1.9307559220869197 -0.5514469816668166
C -1.6412034402972575 2.5067383487452286 0.4017877198455203
N -2.0744428973297593 1.5241410325350848 1.4221049240838801
C -3.0720331190688297 2.129529553252543 2.318708255877837
C -2.5566368744108385 0.2166900312521296 0.877894235683182
C -1.9052621840642234 -0.8968286980112886 1.6994936841172086
C -2.16850436380108 0.029862850283825855 -0.6010652627021252
C -2.5016828377554297 -1.34878747865504 -1.2076490823455153
C -2.3995219834987576 -1.2644176622970087 -2.735491301050651
C -1.2188756838534622 -0.4299628683760181 -3.164182160835782
O -1.103883484883835 -0.11417455989557942 -4.3384281182300874
C -0.1403902398131244 -0.045225913326874666 -2.177503217959426
H 5.748827883362199 -1.11405241675646 1.8231198854813737
H 4.609141695874763 -2.4839740245668946 2.0968755221485083
H 4.526820769217999 -0.9949750581399406 3.1436501516664785
H 2.3646629762419176 -2.15516415724083 3.026967808715059
H 3.9568868550618608 1.9507547282210984 -2.058191518737628
H 3.4472952770971386 0.9186324479157231 -3.453880132621116
H 5.023316854975145 0.6044729925893595 -2.617437197892293
H 0.44333121739983106 2.2193371708512917 -0.173503004575738
H -0.6812016887818696 2.4462633342112947 -1.5297817977606256
H -1.218988552384106 3.406655257950024 0.9013892757319127
H -2.5182421756218405 2.846971878586354 -0.1948016635964986
H -3.987363228148911 2.419795690898068 1.756855830594413
H -3.352156792091961 1.4147901382024646 3.1217917439354053
H -2.6475540696833932 3.0296706325069875 2.8129583912626224
H -3.6649067685135153 0.12240772176459644 0.9589991534074386
H -2.3563773154048566 -1.8819101417018762 1.454728596941751
H -2.118604758857134 -0.7013713521958213 2.7722582921909282
H -2.782758364272316 0.7590219500015566 -1.1813528586005755
H -1.7934857200817498 -2.122763684388247 -0.8393736509912098
H -3.53284632156635 -1.6547257612669606 -0.9268307615753199
H -2.3141618144899128 -2.284654523391145 -3.1666448524958444
H -3.32696082645085 -0.7958118160905362 -3.1314191049101865
H 0.5027819657517884 -0.9479709809174616 -2.0957187996758053
H 0.49573201390747196 0.7508482125960404 -2.6233553147196296
