55
122604
C 6.030767197416066 0.19839866297981185 2.84306683507201
O 4.965052701441377 -0.7373207761799916 2.802644713832882
C 3.730234566035091 -0.51648040125502 2.1675746444070736
C 3.410449335055178 0.7097347823203504 1.5507947202529526
C 2.1651030634299335 0.8928044164143994 0.9328772927581566
C 1.2395708753470216 -0.1695141438278218 0.90497008899088
C 1.557004890693185 -1.385719005110601 1.5191455424853055
C 2.7935735080897643 -1.5640136470092256 2.155531141144592
O 3.1345785621624622 -2.7966930530484073 2.740805633134266
C 2.2067615584517037 -3.716376793835709 3.249551903264406
C 2.5489689582410784 -5.167359721398457 3.282830311282433
O 1.0832034241957056 -3.3281889864748457 3.68492962014965
C -0.10176962932337588 -0.024644094497557324 0.22849076690831122
C -0.17039301206597243 1.2093637146947196 -0.7030400527745548
C -1.6026927602740022 1.4800908156255144 -1.2178545613743745
C -2.1295737799626098 2.8036263763567564 -1.1714116517105913
C -3.380681657657848 3.088412561058982 -1.7329883761732559
C -4.111223754348909 2.103332412441072 -2.3755359117299992
C -3.6021779281743553 0.7902175481216538 -2.471794206125554
O -4.283017198428887 -0.2183364520286559 -3.162271567138671
C -5.538342732188473 -0.050010252577421664 -3.810334589112031
C -2.361691457769855 0.47035911965967825 -1.8830714404315132
O -1.8821825956066287 -0.8476691302147954 -1.9745293274059255
C -2.578072886907862 -1.9487130351705717 -1.4505338841309474
C -2.0149777417555015 -3.3153994272330682 -1.6014444895581157
O -3.63375922736925 -1.7797678043158973 -0.7805469848565331
C -1.3751893771235106 3.9069954179096467 -0.4964763955230224
C 0.11600560002633895 3.651258734195604 -0.5883499363168249
N 0.4029678316990835 2.357132660009724 0.05065867344816784
C 1.859452884902 2.1825728789871617 0.22554486301554413
H 6.35366384272974 0.4664163431526304 1.8080394291536006
H 5.7068709529150095 1.1113319773079282 3.389653720365085
H 6.893699426382621 -0.2604866359019915 3.380526988235899
H 4.126773322356189 1.523770488240139 1.5371853623028024
H 0.8416112072485435 -2.2096157209734204 1.473277350549469
H 1.7726920193579287 -5.726007399202574 2.743636870826741
H 2.601493090384082 -5.523042892682623 4.333864209030635
H 3.5226354041168237 -5.3506222578542255 2.7765549395279643
H -0.8961058598833599 0.04356847194022501 1.006462700595267
H -0.24482720090006357 -0.9532727319680108 -0.34968205751835885
H 0.4543545577777911 1.0072339527254324 -1.6040792795566745
H -3.7822559458493537 4.087675107280261 -1.6974744067090117
H -5.064861134706124 2.378478640389869 -2.8122566692474815
H -5.451455750133615 0.6938379814770952 -4.632428155864981
H -5.84590547715127 -1.0183300762879797 -4.242128463225771
H -6.304332472817664 0.27321821637737037 -3.0801500927596575
H -1.1732904244895623 -3.4202252773152453 -0.8970557250869792
H -2.7842209497393946 -4.0842184593242115 -1.3774153618705427
H -1.6542778724383158 -3.471151905941495 -2.631242705785655
H -1.6690694908740695 3.9354901416525068 0.56320735734413
H -1.6132767252367293 4.892827347309374 -0.9513232967406635
H 0.4478851492737991 3.6539075375806083 -1.6564702464499041
H 0.6380198178973847 4.476382582004089 -0.05503636782067835
H 2.2765589049190194 3.023208539797709 0.8228970970721913
H 2.369672390631637 2.171532653619513 -0.7677965721521434
