54
123137
C 3.108950022029245 4.816541691415934 -1.565261955598476
O 3.1850530987843455 3.585993370777484 -0.8527588572527596
C 2.1234786974815023 2.6750658234376887 -0.7133529628363027
C 0.8651063560634098 2.920027249415168 -1.2851130913089326
C -0.1762100924581683 2.0101389778954224 -1.1259221945216766
C 0.007340931485417642 0.8330064588788368 -0.38352743900809044
O -1.0113968496760464 -0.12040453563910122 -0.21452881505169347
Si -2.647539190619544 -0.09632190721321081 -0.8425111365046845
C -2.6262954338855553 -0.0553525070193196 -2.7175331999780834
C -3.5807363131887686 1.387888073789824 -0.176046052151996
C -3.4817165830460506 -1.6987152012210212 -0.24566623945349753
C -4.93126033504537 -1.7687678227859693 -0.7565300374821413
C -3.476753367859933 -1.7263369473992187 1.2928342722101023
C -2.6902280168957495 -2.9066045818856066 -0.7770600526083484
C 1.2590015506306296 0.5833135467812389 0.2176626501650147
C 2.3329736188354127 1.4911621624015392 0.021725621883902407
C 3.6843490975676705 1.2690304168747961 0.6718832130473192
C 3.898643557402628 -0.17158698584622745 1.1464434395810756
C 2.6681416303302368 -0.6851984595074277 1.925533225740083
O 2.36382407406429 0.2001622517938195 2.98261491977162
C 2.9207188137385627 -2.083863516562627 2.4858937029935677
C 3.3336931708744295 -3.240561067954712 1.616684813844662
O 2.7624688549584224 -2.292934721035267 3.679991343158176
C 1.4592164730975288 -0.7183872709255078 0.9715928493497309
H 2.338572843529282 5.474328226727967 -1.1102985447275922
H 4.0910878274545235 5.3288897212966235 -1.5087751873696966
H 2.868892241022306 4.625692562510808 -2.63254333644588
H 0.6788159802986043 3.8170837641395483 -1.8595149380139746
H -1.1187022350061697 2.2410221744418712 -1.590842074456907
H -2.006171018870662 -0.8910826355249076 -3.1000768156983165
H -2.2057796169266757 0.9010788690873044 -3.0831784547687358
H -3.6601053573524798 -0.15547843799054067 -3.104527477394694
H -3.1544229558187364 2.329018400609873 -0.5732389781571045
H -3.5146990144703185 1.4013643730028853 0.930674068871041
H -4.6444705917817855 1.3276262054631018 -0.48161417569159576
H -4.962307228764618 -1.7611904128146048 -1.8663214245735253
H -5.419955880815548 -2.7041781641811036 -0.4079621815974522
H -5.52752308811728 -0.9116223883915915 -0.37914550467525837
H -3.9275462382346586 -2.6707091200921917 1.6673882609460904
H -2.438928672357943 -1.6592201873930426 1.6854798611678468
H -4.065326266522931 -0.8798678636599127 1.7061026374477275
H -1.6336934081495185 -2.8683724420860743 -0.4334365450309939
H -3.137741306969381 -3.8567137042341026 -0.41323562618011805
H -2.6990305052916166 -2.9284613324026423 -1.8875353043889782
H 3.7773392337814427 1.9590078005308558 1.5384192972047968
H 4.495359186866829 1.5191731154948576 -0.04634682504315931
H 4.80440587538171 -0.2107565160559305 1.7907576630505377
H 4.092749130530919 -0.8072779131133879 0.2557753658481065
H 3.1724077681320284 0.28433301567249225 3.5542039521745026
H 3.399631169192774 -2.959901653854821 0.5471294159199757
H 2.5904391767324997 -4.059346778887179 1.7146844247613846
H 4.3263043272123225 -3.6129700739025443 1.9455102351221893
H 1.5788014190971096 -1.5241099960642845 0.21611011538294683
H 0.550773441549423 -0.9546531067958594 1.5693100783282672
