59
123165
C -0.11950604027167257 1.5174901910453789 5.153689128469545
O -0.5184945671216883 0.8275499537868766 3.990569775706896
C 0.611046169355128 0.5442908351727326 3.1875536992021765
O 0.1894532794948897 0.2492837492850093 1.8727108909620638
C -0.23576596866180025 1.4239093010591912 1.1971989113737531
C 0.8115034279383858 1.821757711818251 0.19564068733651346
C 0.838147032845072 1.2998037417564448 -1.0438406144597394
C 2.1076333860066785 1.3138931852176752 -1.8787235190633984
C 2.829154411451791 -0.08133255343623062 -1.7605767639229222
C 1.8991196123945053 -1.246632471893069 -1.4493942951036305
C 2.411564429427562 -2.496170530648995 -1.0535964973932763
C 1.5739205400452811 -3.4378937099436304 -0.4232320209591384
C 0.24076020601652826 -3.0947261992328445 -0.0943113371315013
O -0.6085200196733241 -3.9365023589413592 0.6369369908117132
C -0.2703610961127808 -5.261210995629288 1.0312831222325125
C -0.22457910229207548 -1.8438641228164072 -0.5015469497524037
C 0.5228293223548036 -1.0255069165895727 -1.2940424399221098
C -0.17271266797433524 0.2755268632538772 -1.5153546822206734
C -0.44708420818418587 0.5041175918724546 -3.0348597473082153
C 0.8279490699826625 0.6683504288289699 -3.878296441124584
N 1.7327558581625728 1.6626841384371862 -3.2702514869533426
C 2.8939301353857294 1.9321997506152873 -4.135078913897247
C -1.4920466048186602 0.1015424706442257 -0.6286605522116854
C -2.8173783056138033 0.13145154683974652 -1.4252485447407675
O -1.3810716439320612 -1.21869053530043 -0.07833336836445269
C -1.5849297255137988 1.1629194395283624 0.5041103969260466
O -2.553246458061274 0.7486109258624205 1.4734730975533445
C -3.1951583120528344 1.6296846575727362 2.3505138355819724
C -4.110384691133891 1.0832512273954569 3.392238626814613
O -2.996528452711709 2.8737025905526883 2.2797313496076828
H 0.31407432939748625 2.511160036217744 4.899446694147349
H 0.602545865038141 0.9168511809874107 5.7545442324956815
H -1.0166732189299996 1.699066391401871 5.781969122657608
H 1.3662579667305546 1.3689905654373142 3.175322165395264
H 1.1200800790835856 -0.3568398741831124 3.595346709101254
H -0.3855565023602298 2.2980284086540443 1.875750982463735
H 1.6450704615713054 2.426325542096477 0.5433517828399979
H 2.792219703684098 2.101959537679822 -1.4897189542954659
H 3.4189831602326795 -0.32347316696614675 -2.667142283989456
H 3.5579639427189655 -0.00844368799950999 -0.923495048666764
H 3.4647403757424824 -2.712616309481486 -1.1670125616761353
H 1.9957250513487574 -4.3853595828438054 -0.11692682119833833
H -0.011887105807876237 -5.868783980398288 0.13951605320473212
H 0.5851811352897578 -5.243295913556421 1.739033311796309
H -1.1433049382778395 -5.724729319397765 1.5321041727401397
H -1.047355611721299 1.432048502759467 -3.1585679944095513
H -1.0218824394754944 -0.34575902480916276 -3.460159222467711
H 1.332153200412383 -0.31456952531604826 -4.004604756344197
H 0.5250415929649304 1.0097612597854095 -4.893115243352311
H 3.38378755725765 0.9949029999582327 -4.4770977324849595
H 3.64210555868024 2.565700818214504 -3.6095829609339214
H 2.558590097891946 2.49486535517417 -5.03289517793775
H -2.8463107166963226 -0.6794306438710376 -2.1812779255211696
H -3.6775122226003645 -0.04385597396991308 -0.7429186360038935
H -2.9726602651859935 1.1128385001973469 -1.919639561477904
H -1.9165780426952117 2.1223744955949555 0.042071914041166614
H -4.710677878578426 1.8972463766395042 3.8511324689217816
H -3.5148396614986983 0.5793742524007736 4.182591785833514
H -4.801280490948908 0.3461728734805085 2.9316711470712495
