105
124279
C -4.268185388370775 -5.1903431662992885 -0.7712861000493748
C -3.647695622291089 -4.257194297179693 0.2752706981367358
C -4.31540519806154 -4.473164061721192 1.6372829493357735
Si -3.6363185005184735 -2.4019950868219286 -0.19519664928313293
O -2.8646371771509322 -1.6495082457932635 1.186411910539363
C -1.800910899713783 -0.7569450979113036 0.9139069761997448
C -0.7612937897080048 -0.9182359923458356 2.046657833884672
C -0.14698326827181002 0.4301441196322655 2.463388832702113
C 1.167976377848376 0.25480562307572946 3.255173610134084
C 2.40854960356212 0.018896971737282213 2.383406010431576
O 2.661912246103589 1.174150870880247 1.6170275911051948
Si 4.058206257607758 0.9594977549041386 0.6105524433501007
C 3.729191072409755 -0.3297898284131294 -0.6957778516799966
C 2.411379760631752 -0.6503405535853283 -1.0588099409253742
C 2.169476502067945 -1.5379402796896333 -2.1107395058015994
C 3.237172077382559 -2.099845115871461 -2.8161215033492804
C 4.5510155198286535 -1.7637517671666982 -2.4767728821802257
C 4.796131390138874 -0.8710145303103698 -1.4292292907208328
C 5.498951262371665 0.4541090151581779 1.6945685142143456
C 5.926633216227722 -0.8849089250264766 1.7281143813875974
C 6.965389057957722 -1.277047198398508 2.5797230000540137
C 7.5622933136307156 -0.3436748473076637 3.43047687080875
C 7.115008914288827 0.9805933775324766 3.4359787928907193
C 6.080225138439261 1.3744206547840283 2.5812508596612593
C 4.332017719986535 2.6128749968676344 -0.3162276020527645
C 3.910707146202434 3.7961090701444262 0.5740543058960141
C 3.466838687939707 2.6393245934476286 -1.5930598773388214
C 5.811033030777084 2.755740435556298 -0.708815118214852
O 0.07203146495197073 1.2321965337512963 1.3206736190900172
C -1.129841119590718 1.7127372038541562 0.7295871591271536
C -1.4618287785663393 3.0810900861358617 1.3837495711920977
C -2.5153629176633974 3.876707132280008 0.6043715461146322
C -2.2026029697024083 3.9192995427570634 -0.8650682929313976
C -2.7600693850406217 4.9199683693942875 -1.6760286690280832
C -2.484161634605626 4.948659444743054 -3.045904925352725
C -1.663230223398482 3.970473317111123 -3.614546244320584
C -1.1219113373084335 2.9572638255736527 -2.8159044935531194
C -1.3926855792328632 2.9240871610769927 -1.4446167562481524
O -0.8340845963343447 1.9087838269613255 -0.6594116595642034
C -2.324650985130491 0.6968222310729131 0.8530821185472003
O -3.1909220120785493 0.8285659541957274 -0.24878930025557003
C -2.720480124776503 -2.1185437168201493 -1.8595453588221722
C -1.487770964731781 -3.0242747672378076 -1.9855386435588156
C -3.632567924598732 -2.2931328883476088 -3.07546560246909
C -5.371949972036273 -1.608463148563269 -0.2868959101896521
C -5.838686079133352 -1.1213932476451454 1.0907743968120804
C -6.43351599922866 -2.5181169967404364 -0.9088233702665871
H -4.115968353206595 -6.246092759257986 -0.45742314079466323
H -5.356580082856158 -5.02439705633531 -0.8742381020073486
H -3.782471094822358 -5.072046595398171 -1.7571933935821855
H -2.5799858174371115 -4.547479892689059 0.38771761168756
H -5.405684715379384 -4.278413746626831 1.5808734867981882
H -4.164424297246012 -5.5220905239375995 1.9708234192661
H -3.8700242044396016 -3.804234388512904 2.4059934756941965
H -1.2626041813549083 -0.9828166858211876 -0.024997709423504794
H -1.233865655975661 -1.3738166846059308 2.9448978165685453
H 0.026746482475220056 -1.6237625046477686 1.706853707085719
H -0.858807510294463 0.9342970917520927 3.158440872347962
H 1.062398789644443 -0.583118621998486 3.978338990050236
H 1.342999842673975 1.1723712475988948 3.8566638859696867
H 3.25658420640906 -0.1895346012596824 3.071872951516209
H 2.2469666378249706 -0.8710927528916296 1.7407210406335167
H 1.5700835687400407 -0.20207245015180184 -0.5467144076506228
H 1.1541034621991886 -1.7765066609971725 -2.390208372990784
H 3.046864433370658 -2.7859225192213946 -3.6312589097232952
H 5.378916794891668 -2.1841083093893574 -3.0327435319021556
H 5.816305325065885 -0.5943729973562247 -1.1994312178703097
H 5.455046517598063 -1.6339078165033574 1.1090766786123238
H 7.296556822502883 -2.309594363092304 2.5917125365358826
H 8.360105803518918 -0.651085677874053 4.09465548722687
H 7.564604950806784 1.7016785624845459 4.107870686159294
H 5.734268473490567 2.39245942356398 2.62847291221469
H 4.052738744677738 4.756083290943948 0.03229956097824039
H 4.50930692429572 3.848063424556097 1.5019880731418107
H 2.8379578090371296 3.7141523289760645 0.8519328147771724
H 2.3977578276354383 2.4622353791163474 -1.3474693272076579
H 3.5495633035590908 3.6231810331806824 -2.1024959097070295
H 3.793648905339577 1.8635243338996257 -2.318267942234622
H 6.134856466567191 1.9022529581347245 -1.3422680805255354
H 5.968468354027518 3.69256258946968 -1.2834698822518624
H 6.463667345691304 2.796613200569076 0.18823977094743302
H -0.5293708525898806 3.6875817877302217 1.4223827080265916
H -1.8086866234118606 2.9464075696979872 2.430918606569655
H -2.547110589658377 4.911455841979013 1.0111937223206056
H -3.519932197489375 3.431522023886983 0.7532478531963438
H -3.4034617122952264 5.678568115871677 -1.247126624277076
H -2.9044554682690755 5.731054254843906 -3.6667702574643135
H -1.449653136045601 3.992843970481839 -4.676358439407466
H -0.4927614487943847 2.196799654758933 -3.263750316954588
H -2.8770469890966806 0.8881363245512923 1.8077960141972584
H -4.0096894172095325 1.2951962983094707 0.0628834618202487
H -2.3831273720451702 -1.0632907680628678 -1.8937922169165793
H -1.7750708283159264 -4.089266980544298 -2.047357802619879
H -0.8079127342946555 -2.902545854917972 -1.1183448276574466
H -0.9240145263419522 -2.7709175974639693 -2.907021174265179
H -3.060473636269984 -2.089604367134657 -4.007902488372995
H -4.040586648945609 -3.319956860365054 -3.136710179325064
H -4.470202225487776 -1.5665617281673518 -3.039620509328794
H -5.272519951984398 -0.7140546961539882 -0.9359900515554198
H -6.831348265565301 -0.6287638731503078 1.0032813900377335
H -5.928148006522133 -1.9672589812156995 1.8036061357956834
H -5.129624130691694 -0.37735674633556565 1.5133754501470378
H -6.076541256074891 -2.9663263451205126 -1.8556427601807663
H -6.732064194893079 -3.3215287388719976 -0.20460696156133618
H -7.340686979849268 -1.9228379137162244 -1.145865026023148
