35
124974
C 2.3410729964321453 2.998752585107035 -0.530563310353736
C 1.5173345149405668 1.9802353948892215 -1.3180953365812533
C 0.21161828709052327 1.5813743192221619 -0.6062167501105097
C 0.42901686061325534 0.7657261184237013 0.6916504171143254
N -0.8300936915700072 0.5008734188679499 1.3781544045202272
C -1.979196315926676 -0.0984866804766026 0.7651691572929346
C -3.246903197689683 0.27482738116578015 1.245940351900707
C -4.410318429921447 -0.1925468443419926 0.6353081500266886
C -4.3243120462140325 -1.0392767645085783 -0.46610917330972373
C -3.0751309702786016 -1.4381179315275188 -0.9415797701580275
C -1.8922262562377539 -1.003437814404066 -0.3253795938049842
O -0.700487080754138 -1.5382317125779918 -0.8436183088840594
C 0.5777986715401398 -1.5888334318585327 -0.2709229360098429
C 1.3290841562621205 -2.7482980550001437 -0.509161951718713
C 2.621885155888413 -2.881652303405642 -0.0019930606402955558
C 3.187015010522384 -1.8479890048033059 0.7409013918075886
C 2.4622323016749936 -0.6782897913683236 0.9711484396993137
C 1.1547202525569344 -0.5310696796670237 0.46615927250107925
H 1.714289870555538 3.869824709479145 -0.24427287290098612
H 3.1801269042096774 3.3602045628364183 -1.1616271561355285
H 2.773588462690386 2.5364374869386306 0.3803059908837971
H 2.1362869557336603 1.0817471313196492 -1.5278079761817596
H 1.2530579293756294 2.434044682770412 -2.297852424743751
H -0.36534640562780335 2.5005769736817904 -0.3634549738490476
H -0.4005872971438628 1.0037490641304518 -1.3280602705815934
H 1.03013119727713 1.4047985781975272 1.37501307118604
H -0.9413529088335636 0.9076487363219701 2.3355213182026624
H -3.332920840864893 0.9570842827426562 2.0825878328555683
H -5.379066824567005 0.11341640774199294 1.0088256525305939
H -5.226203455208482 -1.3957816744142368 -0.9468111588352296
H -3.023912900279788 -2.1155797440476167 -1.784893229858053
H 0.9018018659024019 -3.55646945839701 -1.0895179014668765
H 3.1864430644971686 -3.786140321086846 -0.18827662600143033
H 4.191192169126608 -1.9489670736907672 1.1320571217470463
H 2.929361994228062 0.11784645173970895 1.5374722098568294
