50
125845
C -5.9520031935382995 0.044204731494754415 -0.06890106952926456
C -4.6388738808519605 0.20750134252518218 -0.7547544503066076
O -4.018911072545669 1.3006782884357777 -0.6579914148914878
O -4.140702722030637 -0.8348772967220061 -1.5437665083163568
C -2.864748200094004 -0.8098019175660518 -2.184195927047438
C -1.7468768320838837 -1.1656851413907103 -1.1854945613700452
C -0.5145724175779011 -1.7831351423090935 -1.8716250085025474
C 0.7068788977021874 -1.6767370839193643 -0.9696573011664568
O 0.42090953570755574 -2.2916968640183373 0.29141635183723696
C 1.3656813536468417 -2.971369098796421 1.0675368168180157
C 0.9811772575083343 -3.4536733495433403 2.423998249841453
O 2.5137908585596445 -3.2287977674843185 0.615035237098769
C 1.0789257792146454 -0.19266410027042305 -0.7850653080947367
O 2.055107123940701 -0.07765476255477591 0.2568180109204537
C 3.4203966427185004 -0.3283779182049801 0.08241581899094642
C 4.3452555523249705 -0.15243358004962673 1.2374125489705243
O 3.8812564866946366 -0.6540357538147045 -1.045412676292485
C -0.17256465179269267 0.7506572012928675 -0.5244343476870038
C 0.04851483945846659 1.6226439502411676 0.7553010022130482
O 1.2206381042289045 2.4297306601728255 0.6523800054010074
C 1.671249618393975 3.246742435493777 1.6917991014268583
C 2.937832840727711 4.014208402363336 1.5247343796396895
O 1.0422204327795965 3.3083302399874 2.7827570367125185
C -0.3775004535426982 1.7321448987909849 -1.7266252750976532
F -0.4950934905459853 1.0569765596054639 -2.9243636024452617
F -1.5219372431698706 2.487710098432385 -1.5394299591013458
F 0.6970035302150178 2.5958577983426587 -1.854438137953965
N -1.433096025775904 -0.017824080883609504 -0.29960808924082444
H -6.201727037227034 -1.0339376448789708 0.02138263885596672
H -5.908033626154069 0.48965209393392983 0.9479501549099206
H -6.74327114417788 0.5530469996055312 -0.6585144373615687
H -2.701160448202574 0.17492634896611167 -2.664576826966573
H -2.8857057813417395 -1.5711204063175925 -2.9931537549278784
H -2.1663197262015585 -1.9828085744548616 -0.5504934648732857
H -0.30435777699384875 -1.3034680290143699 -2.849754341462862
H -0.7143194167277528 -2.8564458076689623 -2.0862299184388764
H 1.5447567963198439 -2.208301775913841 -1.4738575560168032
H 1.8821502799121979 -3.5571764555445418 3.066736193057801
H 0.47586328723813187 -4.4388197646043235 2.336245382054102
H 0.2858387935885228 -2.72703004114443 2.8957702162887693
H 1.5627632665321143 0.13354964037693365 -1.7337943556083306
H 4.667389438072214 0.9075955280097519 1.293394346029931
H 5.237441702635378 -0.802756660621875 1.1191353110151092
H 3.8248669823770842 -0.42569534072481935 2.1792437021645545
H 0.1461562601452039 0.9626079687695966 1.6462709910293623
H -0.8332758431762011 2.2792973990172705 0.9258552616375045
H 3.7643777406149237 3.47928674026425 2.037128966821575
H 3.1824947269735935 4.113186715259535 0.44616732882794424
H 2.827730696851826 5.028611381483201 1.9627282273791102
H -1.453617841330557 -0.37282306444834584 0.6865250127574856
