43
125806
C 3.2008868101795875 1.0456654734082687 0.4237270243325216
C 2.9340877742174025 -0.45926555618469034 0.3278259393348812
C 1.435596082331023 -0.787021644453205 0.08119509184415832
C 1.112780110415026 -2.2234693222724724 0.562769118331433
C 0.9631463937017598 -2.319463874341089 2.083333456074417
C 1.0904517767794268 -0.6028760530585769 -1.4319833980379846
C -0.4307364037349705 -0.5221372069892752 -1.8514459468289717
C -0.84770727784559 -1.8606966398751628 -2.5230716470235057
O -0.5962897953887895 0.46357082585266457 -2.8486385287129874
C -1.3519830001435962 -0.12401531351019146 -0.6675947714830043
C -2.214485787856765 -1.0844501074126855 -0.0815153135736192
C -3.0636642073100804 -0.7598208153088224 0.9715526742844289
C -3.0836191414111824 0.5262374377253815 1.4886705557888498
C -2.2352958408599197 1.5073744260515238 0.9694641672519234
C -2.2527774986465614 2.7943845318741958 1.5311905384834164
C -1.394578687217379 3.7824686459949275 1.0564080919931673
C -0.5085770659897664 3.4961729146745357 0.022691436049605218
C -0.48120102050918345 2.2242697116350074 -0.5528089798631001
C -1.3517452678524986 1.199595079046561 -0.10636480839380345
H 2.975615448401551 1.5596637254659196 -0.5322042743431977
H 4.272356384960751 1.215361272247151 0.6607248374076234
H 2.5879962535289596 1.4962007240688393 1.2332702304972798
H 3.5618800989775923 -0.8946907399185888 -0.48027027582117615
H 3.284350951256606 -0.908110242363367 1.279497111678399
H 0.8404659219523902 -0.07623666694479114 0.6888113154160371
H 1.896795800903234 -2.9322646081487 0.21730992594347345
H 0.15271852235263894 -2.5637606693728907 0.13927168204992935
H 0.17612092787452172 -1.6200192291031583 2.43813340703703
H 1.9159660972482546 -2.0922372762867245 2.60168214117642
H 0.661319618645385 -3.3520697369150914 2.358580833572264
H 1.58734069220287 0.32098979748747125 -1.787868535466237
H 1.602124402268298 -1.4087799583369756 -2.0042859096120496
H -0.6576804650685094 -2.7423324533026783 -1.8824662204055194
H -1.9227636949375868 -1.8349505403831414 -2.8037426068630906
H -0.2682127858073957 -2.021608980658352 -3.4577512233591423
H 0.05609876063891678 0.29181621274780173 -3.578655707692328
H -2.2507949176950897 -2.106937292440625 -0.4231726427983784
H -3.7139853590009255 -1.5167300182799521 1.3914818126807385
H -3.755716235831223 0.7512690665517382 2.308680133923272
H -2.9264732426609337 3.0338868147244185 2.345729673548539
H -1.4100550147171436 4.770812218924408 1.4974909200853197
H 0.1663307844120952 4.263832314762903 -0.33395507011137354
H 0.243913097236798 2.0703737526174932 -1.3316962583956564
