42
126434
C 6.665262610026516 -1.2250814802154661 -0.39242852955427154
C 5.2508354381758675 -0.7806630954953249 -0.16468861272246824
C 4.305927064234452 -1.6722517701814752 0.3591118469426154
C 2.997589568925937 -1.2485749099016967 0.6070254266432825
C 2.6029950831668076 0.07424828128549271 0.33223181158290216
C 1.177854883668735 0.493440327699472 0.6607981224703412
C 0.750274303406806 1.8483713321107917 0.05810979342767936
C -0.7235971073502019 2.063075538503359 0.2529482116684404
O -1.1788804580470686 3.235640548106464 0.32849009110169025
C -1.6364359227537022 0.9030870186454549 0.27298211805649325
C -1.1165829338325939 -0.34441208648009686 0.20684767934500634
C -2.020531381672341 -1.564854635013771 0.11575308111925406
C -3.5120334544839213 -1.1620929683622212 -0.028470894340226063
C -3.7838427464037623 -0.5879063001283739 -1.431916242564257
C -3.5751215998210566 0.9161241573599542 -1.2708065713030232
C -3.1457049422782424 1.0721779909246607 0.19379003804370837
N -3.7413418762927777 -0.060660079675563514 0.9150412813871784
C -5.171421492380484 0.14223904695485085 1.208547432535317
O 0.27144440668292663 -0.5302491477401288 0.23326351905909934
C 3.5737581864381904 0.9771054557780362 -0.15195929630038332
C 4.881943266142083 0.5503767295589366 -0.3995719199865949
H 7.256996881647669 -1.06169550665207 0.5323533875319845
H 6.699118559385312 -2.3030314898357527 -0.658815932292294
H 7.126881583630665 -0.6515477120923883 -1.2243212609589713
H 4.5824830445742135 -2.6958195310174426 0.5804554439212372
H 2.2905246717942482 -1.9569187581104401 1.0211292107315308
H 1.1038313213989 0.5777522957593001 1.7678513358027372
H 1.3055379501538538 2.6742040996540166 0.5537065079907941
H 0.9626105915246235 1.8637223454357736 -1.0327934651916744
H -1.8985959683602813 -2.15378806312613 1.0497794808842678
H -1.702322133905107 -2.20878570464782 -0.7318726988585188
H -4.16168814194771 -2.04135357085009 0.18295191609801711
H -4.833750462615978 -0.7976223970869568 -1.7318169652132103
H -3.1050751143368873 -1.0096849165991324 -2.205153758096455
H -4.529199364252761 1.4589136970043572 -1.4474823876418101
H -2.811877153604281 1.3025529726578093 -1.982780511592313
H -3.463821681359068 2.0489726311131107 0.6219300408132499
H -5.571470248617847 -0.7451039057569596 1.7433860631946316
H -5.773661735169712 0.304481527734495 0.2892158806457502
H -5.296416023385403 1.0193785244520641 1.8783583716195498
H 3.3380008714637 2.0145657831481403 -0.3400587360503524
H 5.609501656429686 1.2616677250827597 -0.7711203099499335
