64
128158
C -6.567401922754539 -1.6473625783470593 -0.39475861791089756
O -6.0922174666310935 -0.7101245789028164 0.5662339682507231
C -4.736339745502292 -0.4519966593928141 0.8243807077055737
C -3.705645504170979 -1.1242147610724889 0.1442612173285699
C -2.360478399230812 -0.8336660524290267 0.41199866057014595
C -2.03069018945124 0.13564836493312915 1.3808445767430026
C -3.0652636550749626 0.7818180691513898 2.079597335458746
C -4.4150064097655175 0.5011614264631167 1.7991271417633008
O -5.465814610504929 1.1466347448061744 2.4706950793769713
C -5.2929925744376165 2.137639908687385 3.4785706058244474
C -0.5848874703735215 0.4822176269547294 1.6990338203998496
C -0.2756259947035379 1.9586061141964277 1.3824667588232689
C 1.1391835256479783 2.323070137803296 1.8318524331480275
C 2.1786610474058166 1.3678044940387049 1.3041113984491706
C 3.511356436844233 1.7975581683345494 1.2210415361147406
C 4.525812391960787 0.9242530128174268 0.7885043504255814
O 5.86466182856275 1.3328646038756602 0.6783355027045437
C 6.337244278486032 2.6419648785443535 0.9792634087819294
C 4.205165643989671 -0.39764061564020614 0.4539048107710676
O 5.235410107252783 -1.2418909194663998 0.00980504150133412
C 5.0507027678227265 -2.592062169673214 -0.40349586361578826
C 2.875239692351731 -0.8396515910732522 0.5660539328276646
C 1.8579886501713765 0.030270409813668405 0.988370301474876
C 0.42884332216718973 -0.4845660639144213 1.0172969135565062
N -0.0013529493459757751 -0.9315999120628727 -0.33197472693447616
C -0.002282774966167035 0.11366284074916877 -1.381731934349014
C 0.2699696336024938 -0.5099608125495767 -2.7238579110614753
C -0.7577048269814799 -0.6470230512854107 -3.672399457245456
C -0.49920269748821927 -1.2495230270518127 -4.90755829854406
C 0.7829638378382539 -1.7212504854826707 -5.202643861682837
C 1.8089632714736452 -1.592416464047652 -4.262458893997581
C 1.5549074347618739 -0.9907276909888482 -3.0263970308400086
C -1.2864393714828681 -1.650541720123733 -0.260870234057968
H -6.212578343236264 -1.3674960031318584 -1.4091891352711856
H -7.6765563412382996 -1.6385903567254725 -0.3916590350014341
H -6.219706006586308 -2.6696577182802237 -0.13554792772929528
H -3.941191516129048 -1.8833611785462827 -0.5897446461881145
H -2.811575664459302 1.500563730703904 2.846383882639273
H -4.7405847883354815 1.7114617526865363 4.342513284642534
H -6.289645744881314 2.477112339058876 3.827481725214186
H -4.744628220205085 3.0107065917573617 3.065816038312814
H -0.4620678723386128 0.35645144957099284 2.799500741760408
H -0.9815857864768922 2.623564257066409 1.923745915261416
H -0.3975720032067734 2.177908000122045 0.3040776509391132
H 1.361094524469343 3.3568376353905203 1.487161817091112
H 1.185709514332419 2.317062719644115 2.9425207251543952
H 3.7502334251247667 2.816629202190353 1.4950453778905746
H 5.841545758056505 3.387423536025155 0.32214244805693143
H 7.43106152439665 2.682388705811405 0.7997078831291912
H 6.143358003296984 2.882191676536782 2.045978534209589
H 6.028371102556515 -3.0121373018253403 -0.7164457422886759
H 4.3526404452528515 -2.6350848779020852 -1.2664196265359389
H 4.6567349163354725 -3.1989840386945145 0.4388378919625696
H 2.616034404888864 -1.8583289311103983 0.30931710392392686
H 0.4637380097208849 -1.3898393559179876 1.6673558991971742
H 0.7963060503965519 0.8646268926040167 -1.2081672017210725
H -0.9663392265847149 0.6691771028563953 -1.39711658911615
H -1.7577718063486463 -0.2928589039407898 -3.4547398872102857
H -1.293709953289176 -1.3529349622431874 -5.635233981335792
H 0.9809160235952581 -2.1880596222403357 -6.158845363529104
H 2.801043972546203 -1.9600592871914082 -4.490739172518767
H 2.357945237066744 -0.8988520401894077 -2.3062909974817694
H -1.6118524322657148 -1.955493664522438 -1.2793765202295175
H -1.1470945139279964 -2.591322997228058 0.3143262350114041
