73
129714
C 5.916663892084459 -0.9421949785915947 -0.3786827602996031
C 6.447943996993167 -0.9009675526431622 1.0669494933410615
C 7.6169445405691 0.09554983425510692 1.186617964029782
C 6.961001472371884 -2.302451986417223 1.4387648839307912
S 5.1119998069970976 -0.4849860620940241 2.2769088086903726
C 4.453200213310472 1.077194332852514 1.577874598414276
C 3.130501908530467 0.824670543685939 0.8430683277406034
N 2.0695448116199278 0.5091260087479804 1.7944000021839324
C 1.1303108869471834 1.3834627322817799 1.683645182690004
C -0.14513181805439515 1.3138720863860482 2.4535733734314724
C -1.2503091935924786 0.9650437189778686 1.513215641177278
N -1.7580730467087249 -0.21567338457968557 1.4355134479287044
C -2.7751094158058014 -0.2290082045171753 0.39002576886331675
C -2.4926087656898743 -1.342474094639629 -0.6265145722367071
S -2.505065016546978 -3.0142261967693993 0.13643528623028878
C -4.304392484354156 -3.4260426181204244 0.32721554080159404
C -5.224346099090242 -2.697891151865237 -0.6718375103016196
C -4.7439990302957025 -3.119166896954166 1.7689813000241779
C -4.435863383739641 -4.940433081215364 0.09058636426610217
C -2.6819188428607625 1.1809324813812354 -0.2477515245058255
C -4.019661867610362 1.8817999765401532 -0.2852853976178669
C -4.550418379508092 2.494258291637855 0.8645891158065431
C -5.813029750135669 3.0937728648523146 0.8254870413492514
C -6.560767480109797 3.075485207681363 -0.35496700432386363
C -6.049994907579433 2.4515009834172012 -1.495850008497233
C -4.788285364041019 1.850724996490995 -1.460957623685488
O -1.7658555576878359 1.8578232848763487 0.5951269751696442
O 1.3768575124917803 2.353935554065755 0.7344372037180517
C 2.6202897957109474 2.092852146670964 0.10840856582819483
C 2.426566985391495 1.844971487540904 -1.3698957095167357
C 1.3381040416122134 1.083383269241321 -1.8377503877887935
C 1.1949570555535254 0.8232626196794891 -3.203677230397136
C 2.1396060690236056 1.3089025472024227 -4.112162506925132
C 3.2316931358846985 2.0519678683866966 -3.655580779526814
C 3.37966739967772 2.3143076481572473 -2.2897928951333246
H 5.039224803098998 -1.6194329995040424 -0.4490893186072563
H 6.702087847056407 -1.317165410076312 -1.0690514283617014
H 5.619797782479789 0.06276753093234629 -0.7389520926348504
H 8.467087935010959 -0.2260961501457678 0.5475805110398079
H 7.328364292279619 1.1148967151318054 0.8639083655125701
H 7.970734522565033 0.15168337313718744 2.2388315770367258
H 6.1395208896733875 -3.0479015853426557 1.3681952422416375
H 7.779813554897903 -2.61997834831375 0.7575634693187162
H 7.34926549763159 -2.312140658197774 2.4799964695382037
H 5.175172529902762 1.5629663759079906 0.8972099543155866
H 4.278869971421163 1.7828527853533036 2.417721544726281
H 3.246603499075803 -0.029533462870170862 0.14129004760466063
H -0.3520391391679473 2.3033676276969093 2.9129750835157378
H -0.06992636245945857 0.5548778955600593 3.2632920203648874
H -3.7672143983631683 -0.3757661246272883 0.8585218390252121
H -3.185640518002429 -1.2777473015135754 -1.487672777950743
H -1.4733213138717771 -1.1903735733025864 -1.0421808223738778
H -6.265614228482228 -3.0767760236052433 -0.5861888543146282
H -5.26100330474219 -1.6075461837355673 -0.47219999151142683
H -4.884095035306766 -2.8732510465009176 -1.7146484621040021
H -4.09984301049314 -3.6606589040712465 2.495477324650052
H -5.796925212732704 -3.435143925600287 1.9318539250500946
H -4.676652606044298 -2.0374148954843956 1.9926217705009106
H -5.486720156118051 -5.276043972144138 0.22881832611857436
H -4.117361120036498 -5.200339378842411 -0.9420951778791006
H -3.7944321820009104 -5.50513293340602 0.8014046515058513
H -2.238850381882393 1.1414663025469383 -1.2685270973774778
H -3.9910207988798354 2.5033494534253355 1.7904954209708241
H -6.213142714496721 3.5698331348565047 1.7113653389809282
H -7.538436966052738 3.539295933550713 -0.38402172828032505
H -6.633011453892519 2.431590210640762 -2.4074296762625726
H -4.411437173384938 1.3586291029453932 -2.3494005984860236
H 3.2853386732072574 2.9699940366529476 0.2742541324813039
H 0.6056108532785738 0.6843184889773817 -1.147270407232439
H 0.35405047844297516 0.23957524028238572 -3.5570491959552357
H 2.0287547960265844 1.1036764399157677 -5.168993149133378
H 3.96710186516693 2.420360100280112 -4.359789359262553
H 4.238265163836202 2.879657852887886 -1.9499358516302756
