43
129849
C 6.100600171223485 -1.8683667610524761 -2.4126720806017663
O 4.827596493820279 -1.240321441071631 -2.3228904455769563
C 4.267838260695707 -0.8456187577182335 -1.104532537918918
O 4.891613884070685 -1.020333800300617 -0.022151210174359434
C 2.9386146572912666 -0.16864445303149747 -1.0927242823231518
S 3.159080400729982 1.6055460579386946 -1.3504016803926358
O 3.6377094445723057 2.1202700113812103 0.0014145178256975846
C 1.4948740614522504 2.294427112960903 -1.5309024154091044
C 0.6444916089844186 1.9738354960021194 -0.3401761390492905
O 0.6583564674536247 2.7451802647117116 0.6572937130735103
N -0.14547260424653435 0.7761529788619146 -0.3196875808960385
C -0.9156661600492085 0.3717076592976936 0.8629303150396065
C -1.3224982035107813 -1.086366004979503 0.7706143489921576
C -2.120635784645663 -1.5502146925463574 -0.29323576502791837
C -2.495640847472979 -2.89510178148542 -0.3627917099305149
C -2.0820104677569575 -3.7899748266695643 0.6264647883095477
C -1.2927307256356912 -3.3414843826451905 1.6878848147648928
C -0.9146325200474708 -1.9974458169698979 1.762399045443592
C -2.136242157012354 1.249284903132514 1.0602569108198765
C -2.622374580348237 1.4743690915367325 2.360516495458573
C -3.76598712301429 2.2521563318571616 2.564823557673032
C -4.442067250162194 2.803860544100944 1.4742670470607222
C -3.9785366794092525 2.574873619839248 0.17676290333383918
C -2.835625378238597 1.7975780624391504 -0.03322154110081543
H 6.095712540227417 -2.821132731086709 -1.8418973276995887
H 6.324675213640646 -2.0876578670395185 -3.476716639047555
H 6.886275709251474 -1.193970825631287 -2.010875746676287
H 2.428692232891216 -0.350489040007198 -0.12262587182950077
H 2.307422615929423 -0.5803643490017716 -1.9078982315396742
H 1.5730565746611096 3.395878163464238 -1.6492369395754547
H 1.030439542078876 1.883910650912124 -2.451905616355546
H -0.1543297254098676 0.17679963410792882 -1.1761792026498086
H -0.2500985167166648 0.49778523104443095 1.7470405358955674
H -2.450554783838326 -0.8736399429112395 -1.0703934025371604
H -3.107785682025988 -3.243569692331801 -1.1845988976554782
H -2.3736205462440845 -4.830801546925595 0.5709240260270121
H -0.9740363283557666 -4.035760308578992 2.4546691163042547
H -0.3048219626974569 -1.6698918075628117 2.5950925608937787
H -2.116032155994496 1.0453081216249025 3.2164413547685284
H -4.130317494197073 2.423978434529663 3.5694127247333607
H -5.32796155537343 3.404677035391361 1.6343052252500685
H -4.507410129507797 2.9971030930800473 -0.6679181739137431
H -2.4999605170630113 1.6264683313326187 -1.0478805637863513
