34
129815
C -3.3307670891893872 -2.704206216603445 0.6645233283472097
O -2.244892248237382 -2.013812263501455 0.05921556647731961
C -0.909042058343255 -2.3418092531026846 0.30869841466056325
O -0.6191925841018902 -3.2936032263229653 1.0851008238268605
C 0.16003401974398332 -1.5639879392125597 -0.34194475633681354
C 1.4451962660563022 -1.8145957551186112 -0.22477473996857103
C 2.2334120695409565 -0.8864768827762654 -1.0712727117948766
C 3.2616607564327977 -0.17237850340955796 -0.24904931530370403
O 4.436145655229664 -0.62866783236184 -0.18833152049214835
O 2.9038871254489123 0.9664586800813817 0.47920569208873987
C 3.8237886793893274 1.671199055130785 1.303211702211279
N 1.271570490104272 0.07302333739441169 -1.6358721236402163
C -0.0650230634897676 -0.4221314362446092 -1.2725353370137167
C -0.8679479744901663 0.6886647725233391 -0.632182691094554
C -0.5040928843267026 1.2180635679297465 0.6209413798812927
C -1.2461663920770114 2.255578326845781 1.1926102077634388
C -2.3525837337636615 2.778794344440549 0.51940833967557
C -2.717779215056909 2.266492009499676 -0.7278680849276514
C -1.9784524709661877 1.2289717344233426 -1.3042025061029359
H -4.285032486892399 -2.2612305109961053 0.31293895708158803
H -3.305103936169258 -3.777385899740841 0.37988248387621504
H -3.2742279507766003 -2.606745142970469 1.7693922006339355
H 1.8657235409570674 -2.6189886921409378 0.36628468721695456
H 2.7296050650626658 -1.4671802915107997 -1.8824894036475064
H 4.6697416952935145 2.049586975519252 0.6912001363549137
H 4.207473138160055 1.002365566593767 2.1024836234793502
H 3.3056401191183955 2.5322778787886713 1.7728799395258832
H 1.3639289106942953 0.07688445586561553 -2.679456902667601
H -0.5869212554208911 -0.8151655304975202 -2.175965686083656
H 0.34646233645553937 0.8218180947769207 1.1593587956804756
H -0.9631821470138003 2.6538434688320045 2.1584115493380063
H -2.926079483701892 3.582108641325289 0.9635009626344205
H -3.573590949794893 2.6747707471769684 -1.249766271552253
H -2.2741919438756923 0.847463719363166 -2.273536740127813
