85
130402
C -3.0576747241740843 1.0803785149934868 -3.692189824224898
C -2.101701008797498 1.2079112308730557 -2.767872504818764
C -2.1651321675628807 2.2671961675725187 -1.6941053785569617
C -2.037185851386955 1.7207306075416997 -0.2489335575342235
C -0.7732740829021565 0.8634938799267389 -0.00560097851652037
C 0.5368929164681345 1.6352675754030963 -0.24341633303250623
C 1.7832193992705645 0.8668483463870453 0.23741952711501527
C 2.084256078400214 -0.44473958001330405 -0.5276869965940326
C 2.4702265197041324 -0.17870728894951127 -2.000361554566567
C 2.829262513376378 -1.444465587125295 -2.7319802679219682
C 1.916682510285634 -2.379347666641886 -3.0113889546377255
N 3.1659922537220724 -1.1823656620837293 0.15773583240873815
C 2.9790172329869415 -2.574868755468882 0.5253734157127822
O 1.864842047856065 -3.1391589383764846 0.34003084203616335
O 4.034692753797439 -3.3042296679043197 1.0812001739069694
C 3.9161997860738578 -4.672793578518608 1.4476860830749065
N 4.3993620572185 -0.5052098656792553 0.3610695076523648
C 5.483090634932118 -1.096404437822167 -0.4364978502672421
C 6.71769913425922 -1.156576358231168 0.44430892846433107
C 6.18978470507674 -1.1543978877827128 1.8624359224417997
C 4.809063108893887 -0.4940784384847993 1.7783821575395289
C 4.846009335795644 0.9531911155210144 2.2933040349066642
O 5.677180480813324 1.7407511476414772 1.465332514785863
C 5.6594890290418425 3.075414122610473 1.9165637300890528
N -3.237292370751116 0.958648397357278 0.15828782833192384
C -3.832028818949162 1.2357005967077224 1.4519896635425502
O -4.54531729415138 0.3702867635544869 2.02787989425592
O -3.6291361183666986 2.477419241097546 2.0638550205910184
C -4.200202283064632 2.81777996926011 3.321658680584379
N -3.585493216411294 -0.18408779916933346 -0.6159949082732107
C -3.269630362926847 -1.4402773797529866 0.08214678830666135
C -4.54997719481792 -2.262811161708215 0.19187348928821513
C -5.677036273953722 -1.347038956413405 -0.2450748674476198
C -4.997023864179928 -0.24913582928686265 -1.0533572039560775
C -5.781192590753479 1.082087594008998 -1.0414113347585874
O -6.950056984381812 0.9454599433748867 -1.8318646171040527
C -8.109664195536938 1.1358959317260455 -1.0515676526534743
H -3.9345691470521893 1.7199026133937927 -3.689936595081776
H -2.965994809371441 0.32522118453286636 -4.46624557805236
H -1.2275665533139186 0.5681110493983712 -2.8359913391345177
H -3.10415831121191 2.854599574076767 -1.769616823593303
H -1.347488465958815 2.9927270495797487 -1.8867442535860748
H -1.9345304810282693 2.622879490513113 0.3925822206988886
H -0.7918282108710517 0.5146070792650909 1.0504421705856435
H -0.8086094289682992 -0.03625532819649703 -0.6505310150552903
H 0.6434493497254412 1.8996633855198521 -1.3142901880539528
H 0.4945923822649662 2.5908150906235443 0.32367504883545856
H 1.6565661023856186 0.6319893304936341 1.3172362101693138
H 2.6582718375172085 1.547328082149064 0.14948016236834322
H 1.1579404671577 -1.05102421058861 -0.5268468273959243
H 1.6303232089456718 0.3020521031221638 -2.542206227689095
H 3.3367796691270857 0.5152954460281446 -2.0385022682298946
H 3.851916906323697 -1.5881835040345105 -3.066250107093416
H 0.8825571145655555 -2.260053137078139 -2.706348243814979
H 2.2056441646427136 -3.2751780078756862 -3.5499961634362824
H 3.650719748613048 -5.284105753958811 0.5576362836228385
H 3.1365695713779727 -4.78998394137541 2.2315803543312303
H 4.888868630758079 -5.026026742685813 1.849308438790524
H 5.235961125454297 -2.116057282040905 -0.8029924424973782
H 5.680007300183345 -0.45619185061688466 -1.3226523251614157
H 7.341272746996847 -0.25056406737951475 0.2778134090971351
H 7.325080134243818 -2.0641610052038626 0.23520507163066695
H 6.0862865280367 -2.2021675444756665 2.2184047147748864
H 6.888456998283367 -0.6254756495657108 2.547751569605104
H 4.0948899323688215 -1.0528233437701373 2.4240267435981915
H 5.222709378996614 0.9505458825865551 3.3421589207115274
H 3.8067754292478786 1.3495582408123954 2.3015192443521966
H 6.330385660607837 3.675621447976486 1.2683539457722022
H 6.039899693902167 3.154062304241589 2.9595249180250724
H 4.638684872469953 3.511425751802593 1.8385457250551254
H -3.9059668345368874 3.8539767539239853 3.58701410487785
H -3.830293404107816 2.1251741110088695 4.107298398868896
H -5.307854418173685 2.7625451499335556 3.262385246973005
H -2.517158921555952 -1.999941119808159 -0.514526862588729
H -2.827062764196141 -1.271102446697254 1.0885050631402433
H -4.709706447296539 -2.6208466607719925 1.2329041089244706
H -4.493129614684879 -3.1413852424022988 -0.48823804822374456
H -6.189967301635228 -0.9320458215439018 0.6487356947719057
H -6.425323794401581 -1.8954136104144963 -0.8592084586694011
H -4.97383479096819 -0.5933715019096433 -2.112278462425893
H -5.1610507242592565 1.8687479883356335 -1.5113216594665755
H -5.9787192591545795 1.4163780447265546 0.0029954059740423342
H -8.16841737064106 0.38723061850234525 -0.23120684993987728
H -8.14547332481627 2.1696622792040734 -0.6398011968740843
H -8.999847670896628 0.9984714144983645 -1.6985804896612122
