40
131341
C 6.056893690468411 -2.205633113916438 0.9879690379894709
O 4.844171915768194 -2.6145975833044415 0.363919859020419
C 3.766889144223778 -1.7588072505980317 0.09036893413856041
C 2.631644798641917 -2.294974008386518 -0.5285511772922273
C 1.532301942698152 -1.4832395635075564 -0.8214553628890845
C 1.5542485811963669 -0.11984954598295036 -0.4968292127080727
N 0.4237163592399811 0.7094416451777711 -0.7903609887990712
C 0.11293916252464634 2.1558334735224443 -0.6808604731866341
O 0.7271820474573922 3.1715171378138622 -0.26226990552174173
C -1.235660993870718 1.9085319079195602 -1.2830198777048856
O -2.2835690322428794 2.1915016234376727 -0.354545270139432
C -2.714217977713935 3.489422917725986 -0.0670174803162332
C -3.8136860843825167 3.695533733094229 0.9179743353077912
O -2.212891418862117 4.4821356774372365 -0.6614358707743516
C -0.8906039976729775 0.5052044021519695 -1.3760446708610037
C -1.76437559839766 -0.4436279066417438 -0.5604444276818616
C -1.5643818225852095 -0.5955884534596991 0.8283503110624579
C -2.3821450697531565 -1.444966196855219 1.5765769623972228
C -3.4194015382462437 -2.141934533599669 0.957927274193479
C -3.6484466460688094 -1.9839273842139833 -0.4094985281777071
C -2.8358630320934606 -1.1351364587709263 -1.1711931291643003
Cl -3.2072433678968952 -0.9508926667524592 -2.8826421104582587
C 2.688359184796537 0.4227036958103938 0.1219545881987336
C 3.7888276433414214 -0.3886508868152731 0.4149992710979093
H 5.848463939158081 -1.808415546782901 2.0038498349458456
H 6.730479148617467 -3.0820287967270414 1.0805187391694249
H 6.561886722170295 -1.4325080298840718 0.3711264926559283
H 2.601788134644207 -3.3466810076896962 -0.7838931549363078
H 0.6653434847976888 -1.9184485840481404 -1.3016598170318872
H -1.3741467549953024 2.4025007133066536 -2.270177596579454
H -3.8753542204100726 2.825023066209687 1.6043795396744174
H -4.777699007269969 3.8032402682674213 0.37894084357129276
H -3.6224778431178604 4.611243758696406 1.5162339884151144
H -0.7708860383304473 0.17298619243994096 -2.4311529758177777
H -0.77976771117362 -0.05306125073485026 1.3394154217125285
H -2.2144331697675828 -1.5581684822490207 2.6398691552021063
H -4.053204954911871 -2.7979607824737682 1.5405198846835588
H -4.465659812970163 -2.5182957058521565 -0.8773003094174542
H 2.7216419217038186 1.4724363657788608 0.38156899719274623
H 4.649338271285109 0.05813716045646552 0.8938888688287384
