67
131604
C -2.6340158657231387 -3.1063272295815674 1.7565347329512109
C -1.6252460522172323 -3.644554106690206 0.7294870664195526
C -0.6084530999357446 -4.544571889019503 1.4538855888333397
C -0.8904208942079591 -2.51193033593147 -0.0568029801801227
O 0.09868957419675173 -3.0835162021382234 -0.8824106667557059
C -1.8435894248080942 -1.6159332230819663 -0.9227623388774979
C -1.1319203020301332 -0.9093537940087292 -2.060254878136471
C -0.09118690799005606 -0.07905574915786288 -1.9050809914756486
O 0.4398705192108537 0.14649412668653805 -0.6318196534033041
C 0.8014010088701594 1.4026195192435027 -0.1333042748786838
O 0.3388216159098112 2.4485324063768346 -0.6679609295928346
N 1.6487582393581721 1.4944882716907313 1.0327795035656222
C 2.5590647930212054 0.3489994672709389 1.301279624682075
C 4.016945902726807 0.7692644501988519 1.5113768710046644
C 2.0461783917693523 -0.5438820667669735 2.4385298685584647
C 1.566674720426641 2.735524966080363 1.8485359353828577
C 2.6515753419582495 3.744545658421682 1.4541776797558312
C 1.5432813311642812 2.482397337170603 3.3597267567192164
Si 0.6771617847150089 0.7038715025030748 -3.4125802580593745
C 0.7752395834171957 -0.5526772790461403 -4.793147004093561
C -0.3636929786152559 2.1448504520043237 -3.984757692137742
C 2.417883417278879 1.285286751438963 -3.049318787202191
C -2.700464092242096 -0.606982830699161 -0.16462012661864073
C -2.216743347990897 0.13936581250003147 0.9317276341255339
C -3.0275085845643233 1.0902347372736767 1.5579257264938584
C -4.323291593631478 1.3222691618413502 1.0957016449507728
C -4.81135966236583 0.6049730528672 0.0025855140180216095
C -4.005553553604864 -0.34729616539320807 -0.6277605144915102
H -3.028654907069522 -3.934215236458618 2.382804993980273
H -3.5086866659935882 -2.655084896771182 1.2488341867756634
H -2.1556738052613995 -2.3584983318166324 2.4234500298648913
H -2.1813141404952936 -4.282172098739919 0.006481438360836276
H -1.1307506869070134 -5.352029637911761 2.0104768834149502
H -0.002881404942906375 -3.9493761186546696 2.1711597533074998
H 0.07314393401254035 -5.033263447679869 0.726453427791569
H -0.35120817138295324 -1.8894954395436445 0.6810762840924706
H -0.3632055531210545 -3.662279007599928 -1.5447706441192075
H -2.541124534832511 -2.3301885785927623 -1.416772677608125
H -1.5206345851961964 -1.0836892676654786 -3.056480924253679
H 2.5917624454521158 -0.3022116332592585 0.3985437200936434
H 4.344472513659922 1.4290831590661122 0.6810052396907693
H 4.6677264034591825 -0.1310208851440027 1.5080959539517504
H 4.1665483412520095 1.2816593465763078 2.48100419117256
H 2.5067341115574306 -1.5521582426118405 2.36000772998682
H 2.30755967459532 -0.1371020731618368 3.434833183146064
H 0.9447696460212339 -0.6599998569938184 2.3711550230298197
H 0.5919733990637833 3.2325240478219537 1.6401055839506602
H 3.645319425627868 3.4565353303848276 1.8487374466044055
H 2.7101797869144972 3.830790888057312 0.3481712958966566
H 2.400987357323624 4.744720880015764 1.8680059778573785
H 2.5259589312186272 2.1442652257741988 3.739667084227095
H 1.2907478101478942 3.425643209432263 3.8909788477102736
H 0.760291511612694 1.735757850411269 3.608748547491493
H 1.3425314491241176 -0.12199132848539514 -5.6434165512225825
H 1.292076530910954 -1.4636547439449892 -4.428371002744962
H -0.24645547415653396 -0.8161216470754081 -5.133803084788946
H -0.3616337052791051 2.9403337975230603 -3.2130012249223667
H 0.055777260653604006 2.5491612319116324 -4.928375576693067
H -1.4038023745832091 1.8021149977438928 -4.160331002225765
H 2.9889448510498617 0.4636327551915166 -2.5689626305244757
H 2.9137627795792618 1.5728231266619384 -3.9992245502903905
H 2.396260151797009 2.1644111123241276 -2.3743851548350543
H -1.2215512502746653 -0.0013588109558637647 1.31926706562403
H -2.646762816846923 1.6524370050245163 2.4012391849941257
H -4.947716534796316 2.0612642398369454 1.581240560773865
H -5.813138706105983 0.7919520979700992 -0.3617590369993272
H -4.400432861884638 -0.8808358207145119 -1.4835626241193438
