37
131633
O 2.8001070092148104 1.7463277690585124 1.4669689858237362
C 1.8211760091528404 2.1863047708459886 0.8084617254122711
C 1.7542845751296048 3.539698590408598 0.1916938896568382
C 0.36925873511217927 3.5488866282597162 -0.48645537803637434
C -0.19468911732314592 2.1973030807235787 -0.17901026694452746
C 0.6086940727307857 1.4477777305264088 0.5409505615048905
C 0.29264755929109254 0.022707940015845335 0.9207943998657729
C 1.2514273261569278 -0.9127634188558684 0.214119154321329
C 1.2380255547299681 -1.0296259069534357 -1.1885406156076732
C 2.130965592217655 -1.8884286974387139 -1.8344841462133123
C 3.0477241388461827 -2.6365439224632206 -1.0913747553281454
F 3.9100309590246285 -3.466728427346189 -1.7293403744448506
C 3.0735282935294284 -2.525021291696714 0.30402573268937866
Br 4.325074674544287 -3.5401130011229687 1.332553285163467
C 2.1803119107799165 -1.6656544836387568 0.9534790915655903
C -1.15356712507748 -0.3582178060507026 0.6006541763184683
C -1.957274573047753 0.4553338692150548 -0.12795623616061372
C -3.347177718097486 0.008651519226471695 -0.5145423584926572
N -3.925601256616752 -0.8632800514905117 0.5172341705754283
C -3.0906126262424314 -2.054110879797099 0.7146004820876217
C -1.6941619947778832 -1.6497528774370485 1.0847400975625072
O -0.9797287910977175 -2.429724750847698 1.7701300188617763
N -1.4773345040942651 1.7287239001503767 -0.5921588864662916
H 1.8215420086507086 4.324441506331898 0.975401154699899
H 2.5666526807512273 3.6627698475508113 -0.5563022222224068
H 0.46434877192621615 3.682234517166822 -1.5853950554435503
H -0.28004159637698545 4.341055875433318 -0.055905288214996206
H 0.42188329108018774 -0.05512440773471952 2.0227049066097
H 0.5363147332136657 -0.4545522704423009 -1.779825334261622
H 2.1121170334910127 -1.9725667762306442 -2.913450602592497
H 2.211629340565297 -1.5863671203711434 2.0330083633655858
H -3.9993173228469203 0.9003132698997484 -0.6338162915861403
H -3.3044787468398713 -0.5197625815817332 -1.4931193012207142
H -4.863406785012457 -1.1823887302526017 0.1787834910585099
H -3.5256227654027357 -2.669625482162177 1.5313442213373158
H -3.0630598898241495 -2.669844045543059 -0.21202295566898963
H -2.0816694574605896 2.337666114644155 -1.1879478395747225
