71
132287
C -2.205683230473551 0.3149281084587295 6.387541710283445
C -2.3449195283356707 0.22172161678478494 4.871485633223762
C -0.9955959025049113 0.43594756702719845 4.175754757415768
C -1.1581119715939638 0.39743506030440473 2.6447442459331847
C 0.1988288491173096 0.48078436249358036 1.9030491173117852
C 0.8857735774546185 1.8793892269307098 2.098162405097663
C 1.0861325678726599 2.6767042356355675 0.7925155821099095
C 1.8194548217240205 1.8357946183707017 -0.2838690141506997
C 1.5848601593626164 2.3842631048198655 -1.704077351530113
C 2.0859172037890987 3.790436591066251 -1.8677941505896747
O 3.2433700621489656 4.100242084154583 -1.4681017181317517
O 1.275217352959 4.735701234311567 -2.500803811963988
C 1.6634160858366243 6.098374932568284 -2.6474022360754517
N 1.3914555694465756 0.4247115586033265 -0.22587320107805817
C 2.4212245149822285 -0.5832464530910846 -0.2987011089502754
O 3.352268382473041 -0.4692432359202099 -1.1427242705800404
O 2.401815529625626 -1.6668993375478334 0.5866376351753829
C 3.324647375370889 -2.7507490778233468 0.5289223181983197
C 3.1051545438403414 -3.561922295404997 -0.7199354403166582
C 1.888504778732187 -4.238864934237521 -0.911370109857859
C 1.6726114747909586 -4.986324590296558 -2.0763805161561173
C 2.665968942414275 -5.054657276562017 -3.055575931284122
C 3.878816270754023 -4.381405451058448 -2.8720419250934164
C 4.097438607947833 -3.6340945781966534 -1.7119066198005064
C 0.07831990915586458 0.14371105998420872 0.3892068865179905
C -0.43967596722073965 -1.2927625150144364 0.05775277495033551
C -1.9189729289044815 -1.3351489237680823 -0.37869181628574694
C -2.133402172965165 -0.7735707906059642 -1.7975912674330572
O -3.460566918254282 -0.9962805354395775 -2.23846839822042
C -4.324475951793928 0.028600872828927384 -1.7830914071891337
O -5.611020335917486 -0.16834125810339387 -2.3275094278288315
C -5.661559864467206 0.34181899033373203 -3.643828984607334
H -3.1948313703343696 0.1483867595059659 6.8597808282919175
H -1.834737631953144 1.3206866795572958 6.682454950907347
H -1.5037325119796099 -0.46064122929096846 6.759473827024958
H -3.070688036125676 0.9912043014627753 4.53039605307495
H -2.743820237339312 -0.7804037466092886 4.60976083720401
H -0.5765653480087017 1.4129763176998713 4.495087383295457
H -0.29054642321934115 -0.36660706406813076 4.494207988120806
H -1.6493330143355782 -0.5643219832288824 2.3981251625892415
H -1.8237877726480174 1.2245747198015113 2.3073531558640887
H 0.867139351183321 -0.2879528692822329 2.353963312527671
H 0.2976669955471762 2.527364402401179 2.785269468614322
H 1.8839690068426584 1.7279267533364473 2.56927965800048
H 0.09076422272600715 3.0021884951768962 0.42025893183833546
H 1.6717960135703978 3.5954933139617684 1.0111712610974652
H 2.9073597196184835 1.8966338886742637 -0.05330734568001609
H 2.1133968607158815 1.7421737990443291 -2.4415077884128786
H 0.4972533736986201 2.3454734767595657 -1.944196209429893
H 1.7306553514534975 6.581303610410333 -1.6508302997705608
H 2.650316368777796 6.16005947974921 -3.159718381528204
H 0.9160750234144419 6.625871003217011 -3.2802170062909917
H 4.363678136757495 -2.363710735858384 0.5939392689783922
H 3.1602393652205745 -3.405617987907732 1.4124401792431958
H 1.1101775488225862 -4.1867605233814 -0.15877309940310838
H 0.7353265557045126 -5.51173306457151 -2.220764320962114
H 2.495107483839401 -5.632102366641467 -3.9550162346827054
H 4.644328916295424 -4.437764628920068 -3.6325274225358584
H 5.038390040987998 -3.1130611542235918 -1.5882880169048401
H -0.6524377437417216 0.8598337621344881 -0.0407153036372303
H 0.15346505868098323 -1.7433718741364186 -0.7681816681990304
H -0.30533788488525454 -1.9581337957417155 0.9386025371015192
H -2.254703085726288 -2.396434362485687 -0.3753779920451942
H -2.5431809662224074 -0.7803977971067918 0.3492910339519677
H -1.8332480278799492 0.2968080316153817 -1.8678875270628625
H -1.460739668749024 -1.3183998279269464 -2.492699314974023
H -4.428877559407997 -0.03708912207835242 -0.6795264543396763
H -3.9316040353822044 1.049192505962783 -2.0171551398200758
H -5.559251320514935 1.45212743074532 -3.641402774330949
H -4.879559438501779 -0.11132471782108375 -4.297311659573327
H -6.6573351242693155 0.09849614845796871 -4.085486237236882
