58
132465
C 0.24591035686596796 3.06638317547507 0.8266842796737548
C 0.07008006650987182 2.1077744670611107 -0.08982433705325706
C 0.4610012473482864 0.6671571822838397 0.149574864192273
C -0.37325757707880447 0.04039283376133519 1.294125982899681
N -1.8144683961558485 0.20993944137252044 1.0499321189934585
C -2.3603069838969555 -0.888478822547019 0.242676670749959
C -3.7660422619745404 -0.5496972487966401 -0.18071442706093818
C -3.9715495918548265 0.15843778990039004 -1.374570346430275
C -5.25945695110695 0.5171356347284951 -1.7727502053194124
C -6.36423426864492 0.1891720201504392 -0.9834458181968017
O -7.637546117729393 0.5720817012759002 -1.431796234249186
C -8.850703024380236 0.30744787359498915 -0.7345873530559259
C -6.165215609340271 -0.5043944138993763 0.22531824088939698
C -4.867795877028092 -0.8704615534859237 0.6384909814842226
O -4.64016414505888 -1.5457132271319647 1.8498179863177628
C -5.657473087249681 -1.91869240817932 2.773382562727113
N 1.9104625218358462 0.5956467826330086 0.4174968071584084
C 2.4643944087096465 -0.7399618814566191 0.15977854333712127
C 3.9692408980758396 -0.6708110611238235 0.18239058230314104
C 4.669049027329682 -1.0997495776632846 1.3203781287169385
C 6.060809087948583 -1.0157756267904943 1.3686053909861713
C 6.7792507100990775 -0.4939988922681963 0.29016144265103466
O 8.177483171276425 -0.43380060654102753 0.3908590847876919
C 9.037802542755633 0.07101800656897998 -0.6252989823850817
C 6.083414583161571 -0.047729015929988274 -0.8492380896741106
C 4.677157019006789 -0.12687348378365776 -0.9081038871559407
O 3.9553402764108103 0.3253567718052196 -2.025809272721528
C 4.539849101937202 0.8998887814797631 -3.189879088132912
H -0.04980476513805946 4.086883275337846 0.6062697376549473
H 0.6817498936954276 2.8466983971708903 1.7958923000281075
H -0.367926372604767 2.3759412837762226 -1.0471714883658931
H 0.23254538656678828 0.1243324058721266 -0.7936939102036759
H -0.10738613692885557 0.5416366876447276 2.251490203268346
H -0.11773186113906114 -1.0348835209485563 1.4204378365365484
H -2.3004929062850628 0.19170608669717962 1.9777525138999053
H -1.7398993988540712 -1.0562517728403285 -0.6644466735211276
H -2.346552517928349 -1.8391941782139476 0.8217082043160581
H -3.130668956346854 0.43459849315067167 -1.9992662995015944
H -5.400159685704347 1.057461501060929 -2.70045881011076
H -8.833302005219275 0.7976538348491655 0.26166691474043113
H -9.70055706434281 0.7181674313614254 -1.3172398563358847
H -8.994522721620745 -0.7877747738257689 -0.6201338914529478
H -7.0148656524812765 -0.753325224025086 0.8430076420719691
H -6.37310731056522 -2.617855180283824 2.291602772700738
H -6.190361599257697 -1.0159508742888865 3.1396281418840397
H -5.190153986156141 -2.4304163517481387 3.6393528856602564
H 2.1026537165696895 0.8499868885629988 1.4155886368047434
H 2.1409646810150793 -1.116434446635572 -0.8358517006534752
H 2.1012747578159194 -1.4641256300412475 0.9217167172216211
H 4.136421537427459 -1.500236800930424 2.1741634031034365
H 6.58558663753865 -1.3561550326550529 2.252323542982707
H 8.925437362347298 -0.5284824431108198 -1.5532498297521602
H 8.804851631792515 1.1377278167305702 -0.8279867108718656
H 10.089228641831314 -0.0030852523223848798 -0.2799652852821287
H 6.6328112310398275 0.3622871815975592 -1.6832525103744878
H 5.2223057755973255 0.1700543276500905 -3.674502508971606
H 5.093642297701414 1.8245505084247002 -2.922332448139719
H 3.734988261862055 1.1627907194892053 -3.906705155769284
