29
133102
C 2.3434424098520727 -0.7606282675624836 -1.7464822645153673
C 1.74430300901287 0.5041612105487154 -1.1161370373465769
C 0.7999574548262786 0.29645162172457873 0.10942939402600715
C 0.1559808582012809 1.6712347890009893 0.4442705067157881
C 1.5704013320556327 -0.17771372353351853 1.3720827258456534
C 0.5665416418356828 -0.9520374748527788 2.226884614716777
C -0.4795614555091571 -1.365772947117229 1.2588643845784855
O -1.3790673332097798 -2.140773200032127 1.5467570332930043
C -0.2798797198909095 -0.8083700254609785 -0.10910863523943509
C -1.5598376277105261 -0.3280375003661685 -0.7451231563467982
O -1.6671364464202878 -0.34011921407220913 -2.001841768815042
O -2.595940293029656 0.17480367294555796 0.04986964516295618
C -3.8049950322859716 0.683402661236812 -0.4992102442288503
H 2.754307360960008 -1.4553979593108635 -0.988746620045276
H 1.5849291996110395 -1.28861747349537 -2.3609120545265725
H 3.170726966722095 -0.46943468176308556 -2.427660619565278
H 2.5840924478905145 1.1652836477033748 -0.8073733856771538
H 1.192297955928438 1.040076745707814 -1.9195226575955469
H -0.4120424793652876 2.07070134529289 -0.4230135974020006
H -0.5374394817607935 1.5897157748732618 1.3087598018921474
H 0.938845709893942 2.4177181772302805 0.7001391609391655
H 2.4001755950251185 -0.8631631930192715 1.1050054530673723
H 2.0145909648280216 0.6641855292530495 1.9477879707765229
H 0.11900535686825792 -0.2966483246120999 3.0045633261122404
H 1.0436980522684747 -1.8380123020935994 2.698660113724003
H 0.10984673704588334 -1.6500025146730568 -0.7154407616362399
H -4.466240792708375 1.0200427345403873 0.3252916323508724
H -3.5868207931819605 1.5478121822616537 -1.1615411767923898
H -4.324181597752905 -0.1108612903545246 -1.0762517834684706
