51
133193
C -4.306419661095319 -1.152531007781606 -0.22004624688247562
C -3.084644679660646 -0.26339186228022543 -0.4529245430183394
C -2.9004605248122677 0.7911335773142217 0.6684682881371358
C -2.2167084791455185 0.1716814258874461 1.8995286303856944
C -2.1558795965505975 2.08246275994748 0.20896149952957674
N -0.7356741693730483 1.8659920241442403 -0.11882297122953438
C -0.24516645785497265 0.9414364465997934 -1.102657389015681
S -0.5483189938099123 1.254131020420879 -2.6885579437708773
C 0.6359803183548062 -0.21765536266895402 -0.7362328654658674
C 0.6452056009051695 -1.3798114824780985 -1.6696071819688392
C 1.926988378706372 -1.9570320752429728 -2.193527094453171
O -0.44442649075431373 -1.879593613048376 -2.055831120408916
C 1.4435897896673788 -0.24271402729243283 0.36208012622141855
C 1.6598053379179503 0.9543695389868346 1.2524971618184404
N 2.09022714653683 -1.4727854454840592 0.7399040042987196
C 3.499390733977931 -1.5899975784955216 1.0083616837835891
C 4.420269639578493 -0.6366113696050063 0.5325827670726883
C 5.786528773540352 -0.785235898271513 0.790697338641776
C 6.247752939217443 -1.888918703788535 1.512739635683981
C 5.343432335005677 -2.8498553045913773 1.9728729560814358
C 3.976098811382882 -2.704452129155841 1.7174908088316247
C -2.8666768008676025 2.838694633623921 -0.8885325563347198
O -2.2442029429556993 3.722780492567051 -1.5398530036479032
O -4.233117518081331 2.635159101940636 -1.1129423735704949
C -4.957599965091927 3.333888134978759 -2.118446478402711
H -5.230371053860982 -0.5375527973047234 -0.18078123062885507
H -4.204067134851109 -1.7241113007698265 0.7256258959279133
H -4.401773329944688 -1.8765341670425528 -1.0569257660335671
H -3.2115671448203695 0.2263268974292332 -1.4403850646239178
H -2.191548599102699 -0.9136511577953498 -0.5157578553501269
H -3.9107057274597916 1.1202535632770427 1.0043771334819565
H -1.231480225784967 -0.26084050601070186 1.630499299120888
H -2.8481703437350516 -0.6332941847959791 2.3300748847033916
H -2.0679272202708283 0.9399690464037388 2.6876035346195892
H -2.1819506888401423 2.7729514933794057 1.0812666550478889
H -0.09735594935786854 2.6547151067808348 0.1264303207671349
H 2.147618805549325 -2.9135262401172706 -1.6762510379748614
H 1.8337555897465605 -2.151498062643152 -3.282571772257152
H 2.769781893080781 -1.2508890053125508 -2.038723209448952
H 1.9839589457734543 1.8266839662397125 0.6482660677436515
H 2.4563491629310055 0.7529898092303993 1.9997548144022985
H 0.7416960935422043 1.1819206671594298 1.8304444935537842
H 1.4987825155638659 -2.332912471918343 0.8070018481602511
H 4.088600518236431 0.2132432746171248 -0.04872110316314978
H 6.488804397488043 -0.04690725879366303 0.42601871326624474
H 7.306035447322789 -2.00261322732675 1.7114113352997953
H 5.701235100848923 -3.707157935649625 2.5285225705152197
H 3.2856566197220416 -3.4549125231505924 2.080285169943899
H -6.024459555941959 3.0274773847268337 -2.080881183626698
H -4.8910422129247255 4.43012922946978 -1.9444625241872837
H -4.545829427648365 3.088597103690797 -3.120325121575892
