61
133244
C -4.542172460111692 0.6966680256099282 -2.4845892142847426
C -5.11830502403144 0.20518472071566707 -1.3841447515560072
C -4.9860267798169575 0.8825229706978913 -0.049326718721293523
O -4.112288404368394 0.15064738231498312 0.7923214159925098
C -2.7893369400309647 0.6400693168017935 0.6907535359667704
O -2.6907740431486937 1.9176692008052167 1.3002837322401062
C -1.543297112070312 1.9026816027283073 2.1293177242282972
C -1.301627134721577 0.4676152860994114 2.5699494435985697
C 0.15325665547038658 -0.009615957186347269 2.6447792622383743
C 0.2544684638802354 -1.178370688178375 1.6459191828108417
O 1.2759195289560075 -0.9174359425886679 0.6876488249836563
C 2.642255744538137 -0.9409341601287399 0.9845249389767303
O 3.059877145250163 -1.552467061926014 2.0073370395879957
C 3.6048677347623332 -0.211696381392597 0.07255165574399236
O 4.840960964295083 -0.0887855802336271 0.7829369114323944
C 5.8698098099803335 0.5342052685035774 0.034524158639260435
C 2.978159063556413 1.175105620835602 -0.1703125209358139
C 2.152282252192837 1.4512866057767042 -1.2839244529038571
C 1.50108938891444 2.6830994560847388 -1.4008784864801993
C 1.6454065052502125 3.6526515223891836 -0.4076877392165856
C 2.4369814912775367 3.3911667277107993 0.7101791412970491
C 3.0910686584093665 2.162301913208863 0.8339325360630009
C 3.7895520699039196 -1.080865926983945 -1.2153572104391341
F 4.383246508459603 -0.3483123280202039 -2.22885580428452
F 4.594244009881628 -2.1704997534823507 -0.9301358933861051
F 2.578758638928145 -1.5627918070940612 -1.6844187750381245
C -1.0665313790685835 -1.1846512505806677 0.9510626451935617
Si -1.4026477813195533 -2.2539100319197862 -0.534412194023708
C -0.18870151129735224 -3.6755063709870854 -0.5431190900280836
C -1.1878299214512735 -1.299665231481829 -2.1261112251184766
C -3.1183926335447505 -2.9845476597730394 -0.4329079114656581
C -1.8727589380126597 -0.2505673361717429 1.4503988108937207
H -3.95980523281293 1.6139730702295658 -2.4523508862397896
H -4.643635358519221 0.17102778278381756 -3.428788323367289
H -5.6761572385868115 -0.7258671158468807 -1.4476184137077948
H -5.989389720787975 0.8873839268285558 0.42393805351027997
H -4.702738709751143 1.9554048233567285 -0.16355297288888693
H -2.455345022982711 0.7160810611999924 -0.3669342697344924
H -1.7125408057262657 2.551805919626941 3.0141551057152864
H -0.6809588912338621 2.305201380622938 1.5521051403206572
H -1.862855803161756 0.22377195816268522 3.499341840370428
H 0.8629588944888431 0.8072982999476187 2.3894619945788325
H 0.38784321704539904 -0.3637148473284034 3.671402432602724
H 0.4224815284228971 -2.151327708962486 2.1572072517220384
H 6.627524055440702 0.9227337782156527 0.7421086409768841
H 5.517081939545773 1.3954817535330868 -0.5701897429431605
H 6.37848349236605 -0.20838542400526466 -0.6147353348859311
H 1.9910297391755745 0.72429420450889 -2.064821100854763
H 0.874057684728948 2.8833368400033086 -2.260793631232024
H 1.1324198015903078 4.601921126439665 -0.498141554165437
H 2.5349353181081256 4.1361645687439745 1.4897352768994023
H 3.6700518248586715 1.9718756710711236 1.7296905771131212
H -0.261863834840702 -4.229862364047189 0.41528577293315216
H -0.4255314791636719 -4.358172149170852 -1.384631005171234
H 0.8428861888380806 -3.289180553829088 -0.6655556602694545
H -1.9945706278194786 -0.5521857683888189 -2.238685029447016
H -1.2297205208602437 -2.0039199399432275 -2.9824069053055484
H -0.20334296653390319 -0.7879280569456265 -2.1182732734802427
H -3.2539103482126066 -3.7193133289978904 -1.2537276897794696
H -3.8765242092628722 -2.183882770738491 -0.5303392118480256
H -3.2443774852657956 -3.49626828922391 0.5448739465732327
