57
134170
C -0.505460568409934 3.332201388419248 -1.7456320032272303
C -0.656888009341354 1.803085193999837 -1.7647033716588567
C -1.2502549763418072 1.1457786080309245 -0.4561286340270331
C -2.6658799312592127 1.7923155007480187 -0.27932924114137775
C -3.6256630901188545 0.9736206514506347 0.5564927614126945
C -3.790851579781574 -0.3845666554891198 -0.0961636344461791
N -2.5275108822211565 -1.128090954441492 -0.10083371133128176
C -2.1953473739220817 -1.7478387180584056 1.1913532271138536
C -0.6961674530616967 -1.6335660768914149 1.3890082084965663
C -0.15461021444932788 -1.2053069881349834 0.010673819047484304
C 0.3657316236034102 -2.4488897767570212 -0.657059429982473
C -0.33570264455144516 -3.510553811859273 -1.2336090375514879
C 0.3784149564734836 -4.663726511475814 -1.5960447927013472
C 1.762169040617549 -4.752668666037685 -1.3464885327959732
C 2.444103629732123 -3.6895684905169124 -0.7317415920389418
C 1.718612094976142 -2.5461437036829047 -0.3877157991272576
N 2.2265617926040515 -1.351825108633996 0.2111059597049741
C 3.2963808699436097 -1.313633644823206 1.2048049454633123
C 1.1436443614009526 -0.3758501432836768 0.026819922546478924
C 1.0783931509726425 0.913929701867117 0.8964242399686284
O 1.3737628638976322 0.5862065681135215 2.234112890999085
C 2.095426026518945 1.9485075692168612 0.4300123139160038
O 2.9013481149458715 1.6966745204880587 -0.5094065130111228
O 2.1508953548701695 3.186706868528908 1.0793262540943573
C 3.0571678237889808 4.213813069850337 0.6969894743155041
C -0.3781019636037083 1.5205639258959505 0.8088262029692287
C -1.3299369687527618 -0.4570594062827061 -0.6593641217242809
H 0.23372828829171396 3.6557811902382373 -0.9871477868511624
H -0.13188194413109008 3.670360475827256 -2.735335747743774
H -1.474187230735659 3.8401033142443275 -1.5669891895018606
H 0.3242874860391974 1.402732391488611 -2.051699188045585
H -1.3181183196133746 1.5490416170001766 -2.622690355823304
H -2.583312300244704 2.797617868292823 0.18891761078423153
H -3.1521711440528324 1.951916955106939 -1.2688569182532106
H -4.612486113705803 1.4848613460291593 0.5846216935538346
H -3.263484972556069 0.8861823258030963 1.6011133183085438
H -4.573612491409334 -0.9627524324807825 0.44312152567584023
H -4.147652902887629 -0.2669141333738285 -1.1430032835290314
H -2.486083974989761 -2.8196474070262725 1.1529539241607287
H -2.7296714215319953 -1.2805405698315875 2.0475901822875375
H -0.5010391514745278 -0.9004672045612025 2.1886812585290474
H -0.2740238705185734 -2.5987502912811506 1.751831071468546
H -1.4059174022626335 -3.455603780837678 -1.3822435676771143
H -0.14054800670661302 -5.495837731054098 -2.0536584340991793
H 2.302364899609072 -5.648004222181389 -1.6253962687309225
H 3.506918601807862 -3.7581921078922615 -0.5444237247227929
H 4.120192622711669 -1.994500365940187 0.9093942221849899
H 2.9009072107578797 -1.6304380859875964 2.1922851356950526
H 3.714389330366772 -0.2894253140367791 1.2797712599008535
H 1.2916381010309552 -0.04786942597587988 -1.0160150970067943
H 1.2382690315515599 1.3985368509096192 2.789891223494959
H 2.8687114425223204 4.513557179329574 -0.3557302444312466
H 2.9075173592034034 5.094868362183776 1.3540190314765017
H 4.103400426284092 3.85723535152647 0.8048902037113208
H -0.34118875635822377 2.6224219778652214 0.936642038385295
H -0.944663247913358 1.1975566718527177 1.7051205819923454
H -1.3125175976149621 -0.6779457154781158 -1.7493842804769757
