54
135092
C 3.8673287673107524 1.9446867616059271 0.9030526140586583
C 3.6085421253644694 0.43236959297227384 0.950062189306421
C 2.244882086976725 0.08600146675785428 1.5726844530491846
C 1.505333790299448 -0.7281424342113129 0.48558106143474117
C 0.5326305451121831 -1.7544425146012852 1.1174650401563078
C -0.7999315386524276 -1.1468842825779708 1.5837868254720489
C -1.3980802961886625 -0.0592646269956468 0.6375103946689897
C -2.976920312232822 0.03600735757076254 0.6647533659277629
C -3.713573988586444 -1.2404657924731752 0.175256095143866
C -3.446717004218767 0.306684584449 2.1164179285691733
C -3.4256668473503793 1.2443619563402126 -0.19874167352771926
C -2.8559975432766125 1.2038615094012781 -1.6186145627794095
C -1.3254512705687422 1.1695993494826886 -1.6014627081241937
C -0.7250753154181263 -0.02272264031316003 -0.7869270144105956
C -0.9335206535819243 -1.3579392453022714 -1.5765302515041495
C 0.8109236839717612 0.2673642483386469 -0.5461159465536274
C 1.637069093692825 0.49290775261062936 -1.8554212022575478
C 3.172921591929262 0.5033626820228801 -1.640609343595145
C 3.6509507798738223 -0.31884246925286264 -0.40939846209046815
C 2.67203606612619 -1.461204320378331 -0.18728556182153394
H 3.9596427373203418 2.33754036707216 1.9378805193563493
H 3.031651947915128 2.4824315076669503 0.4073571387648025
H 4.817934214321886 2.1529012303226356 0.3679752423090014
H 4.403212268147183 -0.007895523008274513 1.5954063512481964
H 2.4208441081246885 -0.5340293185497329 2.48038993317481
H 1.6719938590489063 0.9771332692439909 1.9118049724666224
H 1.011691942168786 -2.262870868805538 1.9830072659635698
H 0.3319960647424232 -2.5736704582331433 0.397523471286998
H -1.5024902809823597 -1.9874298347643804 1.7354062538811468
H -0.6426077972129962 -0.6975251855177693 2.5897113769781535
H -1.0762099182658507 0.9006930297872675 1.1075846884940592
H -3.545435674756093 -1.4499717153766416 -0.8957613016587287
H -3.4331335517279467 -2.139030255595672 0.7575599348745493
H -4.811659947850533 -1.1141449805879349 0.29336911819738426
H -3.230267224834415 -0.5598223004326702 2.7764115832144114
H -2.9407726380580472 1.2009053175752593 2.540238584153818
H -4.54303000102597 0.4889731854706988 2.1493708919132457
H -4.535886871933142 1.284600528426695 -0.2603629810293272
H -3.095769245299999 2.194201408100972 0.2796753753623085
H -3.1822824044383786 2.121200554078404 -2.1551754183774547
H -3.2641718058636138 0.34605094420518256 -2.189274470263942
H -0.9754557235989847 2.1378267132544115 -1.1788821753685814
H -0.9711602347783038 1.132235837208002 -2.6545627602201263
H 0.020523858014416484 -1.818096859610398 -1.8964055117925176
H -1.432690001002615 -2.1339690036326395 -0.9664205016993545
H -1.541503184920074 -1.2190471448408449 -2.494317927667892
H 0.8338015211923999 1.278551868790335 -0.08207454799519649
H 1.3491671084552048 1.4598437890208122 -2.3219068674510557
H 1.4021218955523993 -0.28880807559454974 -2.6047500176619907
H 3.639497369366062 0.05698535286504406 -2.5463511062875868
H 3.551201099173052 1.5440934590685451 -1.6183103048427616
H 4.675335853544747 -0.7093329707384183 -0.5996422904646533
H 2.381472303411479 -1.9787001228121446 -1.1280934899967576
H 3.120754595467695 -2.219122679502748 0.4961557300157361
