48
135390
C 6.674701456985741 0.16784185307721552 0.3603719797798616
O 6.043151065026078 -0.7931533096292389 -0.47941337491968083
C 4.687604081259805 -1.1509815144609157 -0.4016789788691898
C 3.8163015988320006 -0.572064591378389 0.5427237457047669
C 2.464898462435497 -0.9524902739173216 0.6005157778495515
C 1.5346717787120396 -0.2830358978807366 1.5917132233776172
O 0.5770297598830842 -1.210027157730074 2.057552470476849
C -0.6208961075039262 -0.49725958792424313 2.2277206064677153
C -0.6299175425167116 0.6533284437027622 1.2372493007255598
C 0.8040261094889385 0.9769825883491697 1.0598818301887258
C 0.9020493993538709 1.3038270762332869 -0.4287990046328684
O -0.13188348786061263 0.6484950729635122 -1.1220901009017494
C -1.0907539132307633 0.2388392952571768 -0.17092353720971318
C -2.446874656862412 0.822848248098998 -0.49797763121708827
C -2.572261934025389 2.1568887298405404 -0.9189764424097618
C -3.8317389979257044 2.6985922306549393 -1.180424268738476
C -4.984432489655754 1.9212165888696164 -1.0115841994813364
O -6.241558444562175 2.463244221087574 -1.2739732988511345
C -4.8799610315864514 0.5937242272270125 -0.5732899217686368
O -6.058676658441707 -0.15034195553483276 -0.40717395683962054
C -6.102432301368035 -1.5036942153114137 0.03344003710521607
C -3.606180775673144 0.051014785349371025 -0.3118302542375497
C 1.982705223968175 -1.9059299280779955 -0.3111246378253493
C 2.84073643908136 -2.4834217106348104 -1.2475842051612254
C 4.187750212411072 -2.113905843540315 -1.297103964544257
O 5.015195966278444 -2.713073631005724 -2.246757947850628
H 6.610677444185979 -0.15174562228990984 1.4219618165550896
H 6.197011804909087 1.1618156750579738 0.22970527433788562
H 7.7443067501314795 0.248401847860747 0.07795257521471652
H 4.1784954380372605 0.17975138206421445 1.2310097708199264
H 2.1388153614738514 0.024235458307384043 2.4756355166742128
H -0.6642672255486533 -0.1022923879030912 3.267043692387335
H -1.491485647230458 -1.171416375713107 2.0791699827359027
H -1.1952678284495133 1.5288681357293143 1.6324290969035482
H 1.0898364038006612 1.8649602909836824 1.6690136829484679
H 1.8851295351802884 1.047319521531314 -0.8709855987739626
H 0.7715359903859844 2.3994748598946702 -0.5663380717639643
H -1.1522689422466454 -0.8700212195341558 -0.2470212244129293
H -1.6962906837968548 2.780505579908557 -1.0419002491985072
H -3.911838000515816 3.7266045340689087 -1.5102954941891558
H -6.351343461432381 3.4195560784693217 -1.5907371117158078
H -5.549467341957871 -2.1545394934680746 -0.676397907981788
H -5.665359001116768 -1.5883969055093532 1.0508245077505622
H -7.159282724783721 -1.8381790240772178 0.07220769886975106
H -3.5087202659836114 -0.967882917157458 0.038397190067672365
H 0.9418132861216068 -2.2014536008730374 -0.30164068192775273
H 2.456439884840871 -3.219764731270694 -1.9420634619816828
H 5.99827601149191 -2.483264829765158 -2.3284342495371213
