27
136225
C -0.503282640441645 0.5774069729768421 2.389324679721287
C -0.5260372676952462 0.28701054849183655 0.8833682569181237
N -1.0647298991453151 -1.064481372906567 0.6316933388267227
C -1.4074755242436416 -1.290988546011196 -0.784907461817079
C -2.7978022121680883 -0.753063588705836 -1.145790539947833
O -3.0783401123027683 -1.053594519202122 -2.484346339495742
C 0.8782024161683116 0.41622098509120353 0.32660329441678604
C 1.2328248993215805 1.5381546299387512 -0.443212559697195
C 2.5306937457752197 1.667283656561073 -0.9472909168868113
C 3.4865959628593433 0.6832324590097091 -0.682992551498791
C 3.147427578290828 -0.4310895184444413 0.08835963826509133
C 1.8511644270781533 -0.5649470824506939 0.5946997752533636
H 0.09404100011900178 -0.18882733644358646 2.928441137043915
H -0.06338520786233075 1.5798495348471853 2.580787484441013
H -1.5376282298036632 0.571650878041544 2.7942530629446236
H -1.1899211344708887 1.050116561269964 0.4204537862728077
H -1.9163576910236175 -1.2268328874854593 1.2196649981243386
H -0.6454590417928001 -0.8447361740687702 -1.4610323102213683
H -1.3973596914110478 -2.386399676850794 -0.970492382650086
H -2.832230315368774 0.3482024740498527 -1.0012262197059871
H -3.5629575049692446 -1.2279259999162535 -0.49166209462101723
H -3.9851902456959616 -0.6923277162069053 -2.663859109133889
H 0.5058102910836014 2.312307671538742 -0.6546807671573067
H 2.7958663838115183 2.531867638625591 -1.5419920249412904
H 4.490740346585686 0.7854757677990913 -1.0737451694407916
H 3.8897643125102865 -1.1910103037995825 0.29552843729709755
H 1.6050253547915003 -1.4325550557491786 1.1940525576900196
