69
136398
C 6.24319893561604 2.6723378207057187 1.071688962867616
O 5.353375155103674 2.896459658359427 0.004175264190519563
N 4.103430724781737 2.603401335827524 0.4617893818252323
C 3.2830226230891633 3.6814517847432215 1.0151560102280028
C 3.5680980189378584 1.2829277734449627 0.2499258235618139
O 4.258605416931818 0.4364584641567807 -0.38209874813260786
C 2.1874747230292972 0.9157663740118716 0.740237057639946
C 1.8834462408931099 -0.5870294290981596 0.6153719033084009
C 0.49386510269235845 -0.9435820443816556 1.1897224382745788
C 0.2064656504765433 -2.4219262926049883 1.1197785435959309
O -0.9394518945745657 -2.8360930061071747 1.4426606493384007
O 1.2125129380920503 -3.31792393458818 0.7202941793743699
C 1.048209589696659 -4.721968310313125 0.4738741007415211
C 0.5983350042609393 -5.456772482024805 1.7525163391345444
C 2.4182443965534075 -5.2687390959077245 0.044988885074003185
C 0.03869992644189602 -4.951010351479038 -0.6670189898676468
N -0.5743161547126444 -0.17835892418877305 0.5079913994616612
C -1.3263664547921745 0.8118665484880673 1.2386708423183965
O -0.8546662912881813 1.3045252437605133 2.2992788258406636
O -2.5848526352806056 1.2171865039201555 0.7640338335971509
C -3.428039337981819 2.222963900841747 1.3444619011488206
C -4.69365134061269 2.3120035564469883 0.47693951285960395
C -2.7209732686781183 3.5929895698525947 1.3337759904134698
C -3.8349999473823337 1.831304622485768 2.779468863624399
C -0.8315891452583802 -0.3610340136696027 -0.9019748355751958
O -0.43668646439806186 -1.405916485617084 -1.4853420059865423
O -1.5067947493995284 0.6394739015007196 -1.6199899257609542
C -1.8035315352110382 0.6265144265405637 -3.024102243564625
C -0.503780767127899 0.5774689462810313 -3.851241905677173
C -2.5466246042492076 1.9334658076469535 -3.3435034812360414
C -2.7190650187294203 -0.5627633552494097 -3.373917981369533
H 7.274072170205959 2.8986971753392012 0.7290175272395092
H 6.011817715703237 3.342241325116251 1.9294639812975927
H 6.216706518271731 1.6083331446349372 1.3958958724308568
H 2.3679010377160603 3.815608771360797 0.40169976487888437
H 3.0033435371311676 3.445294940848729 2.062351082086397
H 3.8498092052131323 4.636043201978629 1.0102074476138612
H 2.0980017339803907 1.2109388229608617 1.8074578447356113
H 1.446150171051238 1.4943182410332703 0.14864980594546875
H 1.9420342245148516 -0.8876737817269218 -0.4533763882876126
H 2.660304249098541 -1.153441316778431 1.176484368049572
H 0.5165169569152053 -0.6971534586642298 2.2733198090447413
H 1.283649508076786 -5.216889062372906 2.5939566868718837
H 0.6065512567038893 -6.556815991491559 1.5935998310327004
H -0.4323184858541377 -5.176562941428484 2.0482760212577134
H 3.163919215952026 -5.109156167684014 0.8528310543490067
H 2.363466350687191 -6.357247792432874 -0.17536945207552787
H 2.778273386759324 -4.738428310713855 -0.8640164969241232
H -0.9810035214934285 -4.6298327649106925 -0.3713989217308493
H -0.008847048307190552 -6.028257070157655 -0.9363984012882957
H 0.33856840875373656 -4.372216012392773 -1.567279483834766
H -4.4273249309032225 2.5716654735994817 -0.5685483407288052
H -5.390857855077657 3.085722424993492 0.8635019944608895
H -5.222216587956291 1.3351741011679095 0.4660563695244475
H -1.8345864057993502 3.596140630387131 1.9991244826578178
H -3.4092762429426107 4.391924341337655 1.6863075778616112
H -2.3861643918730304 3.8428175054259723 0.30346237595686487
H -4.612590131806153 2.524967828418448 3.1665861943633953
H -2.972952371650602 1.8762463289533948 3.472943802231119
H -4.2418141179468325 0.7983007577545053 2.7958698469953003
H 0.01132396717658569 -0.39753922035457684 -3.735643609304353
H 0.19015039969633427 1.3794547709092733 -3.5217416983845267
H -0.7224100699237077 0.7161967062113453 -4.932367695352106
H -3.497205833617448 1.9846425934605676 -2.76997605526699
H -1.9238090560211067 2.810409416744608 -3.0601643707000217
H -2.7874475218590553 2.0033538545800504 -4.426626210814902
H -2.1925867808532957 -1.530748706743186 -3.2485919246060035
H -3.611715726957447 -0.5660220083979808 -2.713354060356157
H -3.059027769684698 -0.49595626475125376 -4.4298212224789415
