61
136943
C -0.513284800840879 -5.1112734613530195 0.2253508868707529
O -1.644767503231345 -4.247333394391897 0.20911945282172617
C -1.580420842747996 -2.8443198778334176 0.23287570820695666
C -0.35679610268593503 -2.1547969194994594 0.2878767275803873
C -0.31585632310759615 -0.7484628613582548 0.30771662232430896
C 0.9309685156984961 -0.07322928921247335 0.3393145923989144
O 2.1092773080205287 -0.8414108119348956 0.3757092614041655
C 3.3606282888911494 -0.4921469150336522 -0.2104957860877085
O 4.151809149216975 0.21426556560179186 0.7199347517687682
C 5.462075544154374 -0.31418203772131376 0.6819956424161122
C 5.562539848140775 -1.3604054398379075 -0.4364316908305021
O 6.082228411525472 -0.7875446733251361 -1.618246479410116
C 6.444476984159667 -2.560803719306907 -0.035609266632434695
O 7.764940226212038 -2.1490433289813313 0.2008149615546407
C 4.107904649020384 -1.7626400118527774 -0.6012820967776444
O 3.7939016050914955 -2.227581511641215 -1.8941365154156995
C 0.9235301783176735 1.3363186804068177 0.3514685321632029
C -0.2649013339974517 2.0352227415581394 0.33377062373495325
C -1.5125581200489082 1.4044257141071286 0.29465077828779107
C -2.7471941069840784 2.216722857351913 0.29315027179671255
C -3.5502525829111455 2.292700453718186 1.4589002922801395
C -4.728758310659924 3.060778741816517 1.4619814178651285
C -5.067803569785125 3.7345245769613977 0.2923562104273275
C -4.300737809481325 3.666318642232351 -0.8249831303096427
C -3.1285813408947667 2.917390176223344 -0.8710801670682674
O -4.8742914104443145 4.428101054635899 -1.824375235529204
C -6.076516615786989 5.010922425901631 -1.3027175270254336
O -6.162051904567769 4.542114142707612 0.05026884196656017
C -1.539841507940417 -0.01522596880810106 0.27519771658171543
C -2.7574444439507966 -0.7223921701834909 0.21342043420814635
C -2.7814678433884805 -2.1276864876090325 0.196781612339187
O -3.9844226916004226 -2.851737398732218 0.14285073529290035
C -5.282066238430361 -2.2658930037925575 0.11675381866824444
C 0.07135299403513166 3.4364728172947125 0.45909352514028073
O -0.7399253115006132 4.398053900055389 0.5025951105332825
O 1.4424826459309357 3.5810019018348105 0.556610745716957
C 2.074164670654933 2.3022263708085275 0.5013155017262533
H -0.8602186531352208 -6.1642307509872225 0.1907197215898666
H 0.06867290406668755 -4.960254335257549 1.1580792061323721
H 0.12623488629088225 -4.919270438363288 -0.6612831114505571
H 0.5659821473708551 -2.7177602012730024 0.31017241146317875
H 3.195126929923 0.1410461959870928 -1.1084341518860532
H 6.191075589763225 0.5096906879694496 0.522995582874465
H 5.678112734827823 -0.7657471964992899 1.6749875477695633
H 5.5903237025811885 0.05416402353983431 -1.8089980023452046
H 6.055660164445234 -3.033477378110435 0.8923479786946235
H 6.417623744125914 -3.3357615474471576 -0.8363596126880746
H 8.205654478382264 -2.0753478614843464 -0.6856355362296046
H 3.849823812305212 -2.5634658699948885 0.12955465309849648
H 3.8583727915256514 -1.4711376880639104 -2.532184931466225
H -3.261800561267761 1.7572863528483453 2.354816104053088
H -5.351525552114227 3.1260418064912048 2.3440480496744045
H -2.5340910101605245 2.877026685131704 -1.7751346407050093
H -6.0041579194771515 6.11841785523064 -1.320345597425516
H -6.9547251589219306 4.663111846768361 -1.8852180783665287
H -3.6922018032012653 -0.1832829615351974 0.1702121205282675
H -6.043026795708396 -3.072391300934818 0.08818951846831345
H -5.4446309487867035 -1.6566175860230568 1.0309035104642514
H -5.3985052125198525 -1.6355819204253264 -0.7900293512680953
H 2.6193321477158005 2.1181912283279423 1.4501262873824563
H 2.750547277885907 2.2698988732978003 -0.37604655935133996
