28
138038
O -3.4791436887763365 0.7771792443332032 -0.4452873330017584
C -2.2006432973364918 1.1713446923109525 -0.02878473161545756
C -1.1826795932245706 0.05632399685804581 -0.325066081396998
C -1.5492825574560722 -1.241516126348929 0.4413529576330889
C -0.4689033233378608 -2.332639609010724 0.2941924924362897
C 0.933458383079814 -1.783024979446465 0.5991210188275639
N 1.1662926319990699 -0.6101880731488292 -0.2521722812427004
C 2.4944409261909954 -0.015390825875984471 -0.127721325949651
C 2.332731132786829 1.4466717004904663 -0.5545975692313545
C 0.8240699093983889 1.6896433767700436 -0.6098463539738357
C 0.24485158698635082 0.4690709414334217 0.08715351757460903
H -4.088057338682234 1.5254310586154591 -0.2122274471281087
H -2.2113398313104784 1.3958915126874964 1.061972658403703
H -1.912628687818755 2.095598377683338 -0.5767769752516737
H -1.1974268749624952 -0.15683449793388698 -1.4179251177157761
H -2.5146172325302834 -1.6424453769124343 0.0635059437582823
H -1.6773946223694396 -1.014373402046623 1.5232005476821506
H -0.48720220181688534 -2.723899073711568 -0.7466340534867074
H -0.6953794968030943 -3.175249657309684 0.9822675658027428
H 1.6856226999339414 -2.568297401374752 0.3677750316051081
H 1.0177793951093135 -1.5240847668699646 1.6793530747240997
H 2.8608096223703434 -0.06383573996850715 0.9237629130937309
H 3.2103184300432375 -0.5440811702428082 -0.7928880114774155
H 2.8120071726296128 2.1214065322053357 0.18809911446605082
H 2.7889785528962974 1.6185380173531327 -1.5539751365808614
H 0.5434662328913965 2.629580137928575 -0.08656561749092283
H 0.48662058022831545 1.7312262893418584 -1.6691799357332808
H 0.2632514898810897 0.667954822189831 1.187891135269083
