21
138460
Cl -4.693444084315055 0.7513541513707984 -1.789198881824496
C -3.235061507007312 0.4577906825571774 -0.8599056936513667
C -2.479766328022098 -0.6982547437395584 -1.0879020914203776
C -1.3168320730920313 -0.9325395674895485 -0.34735347277573525
C -0.903564606410612 -0.009049321835150666 0.6209843714949066
S 0.5892637740425112 -0.3054763883840731 1.5734839729549808
C 1.7116336401641994 0.6143461127541688 0.44069366698055495
C 2.750075515691705 -0.24732214269082298 -0.30326716369378065
C 3.5201581400724034 -1.1976726562657427 0.5065629654712789
S 2.2959451139369453 -2.006925119395015 -0.6171027041513971
C -1.6632742423210978 1.144485086278258 0.8526369286535962
C -2.8261606835066644 1.378360004800916 0.11182770718368507
H -2.7930488562907065 -1.4149345798265276 -1.8363042722463143
H -0.7415360462322776 -1.8311916485423256 -0.526171999775957
H 1.134056681079033 1.1849642573418018 -0.3168227031862641
H 2.2607283811654546 1.3634095608706667 1.0483045399535749
H 3.3273153719992754 0.2325866825009343 -1.1218812730588266
H 3.2524796041667727 -1.2761814558792748 1.5807665300756755
H 4.56986837303344 -1.3422968564769062 0.17559752577853271
H -1.3514657319711305 1.8611006376618162 1.6017969001889567
H -3.407370436182755 2.2734473043884087 0.2932551470487731
