27
138689
C -1.9364003508157843 -1.4849711059754864 0.784732799710441
C -1.9802162528612102 -0.6218609077908501 -0.4737957971053734
C -1.1298807799240491 0.6316656949277539 -0.3502379348985038
C -1.8192247325789348 1.8373026511394779 -0.1021769334522858
C -1.1432319343222226 3.0515303079339406 -0.01104057752029788
C 0.2371640497823184 3.092103360285003 -0.15821495408322125
C 0.9495498715375774 1.9168595413930816 -0.38429528651877043
C 0.2982776523446889 0.6684327946281698 -0.48263285415001483
C 1.2133688559535376 -0.5458512658197149 -0.625250233327631
O 0.5634138383412775 -1.6371340559064107 -1.2198434773937545
C 1.7929535575582998 -0.9356061655204285 0.7472553717511005
N 2.6618770280851867 -2.101461226743535 0.6343742431370502
O 3.8291223417104807 -1.9727891023512047 0.21177848504691976
O 2.145991811441416 -3.3620094621860783 0.8253215380589003
H -0.9893434118990359 -2.053706407072661 0.8409661406173758
H -2.766613434032542 -2.221993376852116 0.7559707066588213
H -2.053057897717834 -0.8580375619333147 1.694499771273999
H -1.717827566521976 -1.2103189198108426 -1.3736989437957197
H -3.0433497367532842 -0.3412366922135551 -0.6425612084517262
H -2.8959745144624858 1.843018517676776 0.016922458489009314
H -1.6938178666438692 3.964954756533368 0.17409768988264562
H 0.7608133392723768 4.03659059314008 -0.08425838354371876
H 2.02807598987467 1.9804353694070407 -0.4677842937265015
H 2.0682588773254267 -0.2479775070327521 -1.2803315262830943
H 1.2572683066291244 -2.1939988577199796 -1.6609020086555348
H 0.9815888817732896 -1.148072923114632 1.4727328451294
H 2.3812140769035577 -0.08586804902112728 1.1583723631504845
