46
139003
C 3.8862430016867187 -0.8348631928602653 -1.961019478374332
C 3.430636645874719 -1.3803576405567648 -0.6365358821733023
C 4.233759393761934 -2.3177597265353036 0.031110497237735547
C 3.8354933646686336 -2.84115136457521 1.2616422555656164
C 2.6319132841621955 -2.4367295622505174 1.8395327056309354
C 1.8142140202750654 -1.4983208452823087 1.1921007368251262
C 0.5327335579454278 -1.0490287796904967 1.8456406569655457
O 0.7266849604197118 0.17263815153927656 2.5033234998899583
C 2.230831469222863 -0.94110768539295 -0.03441325656347748
O 1.4365611649007355 0.030975768914919335 -0.6491980498809659
C 1.7673806275806787 1.41532680242696 -0.5961241745721048
C 0.6044164836644249 2.243531539363452 -1.1504192080192062
C 0.9681736419539108 3.729637694061703 -1.189944274442743
N -0.5863346371875205 2.0484904103297983 -0.31784296356002173
C -1.6018241512296807 1.0858137881734973 -0.6240821138816649
O -1.546578540772423 0.42606082154912256 -1.697087963817482
O -2.6471102469488526 0.8907368093836143 0.2912282759757139
C -3.743113351268783 -0.02574412871147703 0.149079237625109
C -4.634996977358948 0.13740065416330255 1.3892465036753963
C -4.571853771687306 0.3082209503146097 -1.1063345909362814
C -3.233484495993147 -1.4785487443724723 0.09212414262520335
H 3.0186558570558417 -0.5701088622530629 -2.6014722436359423
H 4.487931154300529 -1.5903980916341465 -2.509911310649462
H 4.511894234178522 0.06667470256680386 -1.7955753683324482
H 5.1695110050378545 -2.647164016968178 -0.4037917938691123
H 4.461273510423568 -3.5644376601874184 1.7684665664287031
H 2.339010862542682 -2.853549602298108 2.7953039809692113
H 0.15525136593058206 -1.816554690694907 2.5592649995708245
H -0.25398335682260864 -0.9192992136747451 1.0746113419621433
H 1.2354391261902675 -0.029579139887226043 3.3316215771004685
H 2.6812459144452747 1.6037575441074274 -1.19774116436081
H 1.96975152291714 1.7112935559904547 0.4570654340507757
H 0.4013476731193571 1.9208868186108115 -2.1955803496364252
H 1.212270859431583 4.100964949072031 -0.17137305117776286
H 1.844361498951801 3.8932278372049405 -1.8531275973205903
H 0.11311407485631302 4.315785501407067 -1.5888611282098095
H -0.6290228436439407 2.5182010422521026 0.615128898686545
H -5.011414691283884 1.1807887657498335 1.45857685395076
H -5.506656431177332 -0.5513494465492067 1.347551642657808
H -4.055434907106579 -0.08126868403614115 2.312049593620833
H -4.000199710853171 0.1071076099180574 -2.035021221541194
H -5.4954783680129955 -0.3092041867227952 -1.1406075251061472
H -4.862689133936645 1.3805179108154808 -1.0992867792990633
H -4.08708628940606 -2.1900478140478152 0.07010295555832396
H -2.620606293800243 -1.6581457358889702 -0.8143447110788696
H -2.612232077008221 -1.703320812844774 0.9849238438664811
