76
141984
C 13.164371487899338 -0.16256136273550892 -0.9729267247983046
O 12.2178660236149 0.6061255937437868 -0.23646830723135978
C 10.885135603696495 0.224348520682382 -0.016508963313974626
C 10.360473644651226 -0.9916889683868296 -0.4952676656360268
C 9.0262003497794 -1.328946378807405 -0.2521553904359504
C 8.190690432622318 -0.45315036743368725 0.45598950963130747
C 6.783673701849841 -0.8271131198072269 0.7019261905472923
C 6.335962541493482 -2.0364284113069253 1.2116065451131155
N 4.983023239167325 -2.0367969847304397 1.2772927058720056
C 4.643639612605914 -0.8229371060630577 0.7928308415888765
C 3.3461333050814774 -0.3394460017595974 0.605173528609484
N 2.200055612688604 -1.1067492015713745 1.006835163178538
C 0.8619231243959017 -0.8241162210208852 0.5656318889626177
C -0.2081858455107234 -1.026956363953147 1.4416041007651617
C -1.517205847340536 -0.7807884203156087 1.027016075542294
C -1.7903562140274623 -0.35453511815362143 -0.2839331254451209
S -3.4817464649351937 -0.06937645273763794 -0.7465446455672321
C -3.836093863601049 1.665579302570922 -0.5767152121251676
O -3.720673070442868 -0.4923753090396523 -2.1697587709571513
N -4.450733803393184 -0.8781934108278016 0.17417381898415318
C -4.433322628655234 -2.3238073723411974 0.22876038746387267
C -5.7539625227891396 -2.8975556061405734 -0.293736551925749
C -6.911230296156531 -2.765168808170894 0.708917794874781
N -7.255216959738575 -1.3674110960429586 0.9683596167182352
C -7.925778212633197 -0.5416150593568112 0.001971426433525445
O -8.17327804739696 -0.9935579486838721 -1.149946819099557
C -8.403385154374442 0.8396534486447618 0.3827162247168125
C -7.32099514204553 1.6504933862414635 1.0992502169661846
C -7.450904041672652 3.0468598604811836 0.5367850791324291
O -8.355367074690722 3.7892106500906424 1.3146954968001046
C -8.019799640460292 2.8158862653161276 -0.8530921736447312
N -8.816388533788706 1.5903419785428876 -0.8129734106467559
C -0.7107810450266552 -0.14087569903579758 -1.179154109126303
C -0.921234909949006 0.2945141125694587 -2.6058020454912083
C 0.6022162819756195 -0.40077784248297027 -0.7476081142033614
N 3.20505294969641 0.9047559345378927 0.05745749889137339
C 4.283500586463778 1.6551934601097693 -0.3196715151349777
C 5.577859750886134 1.1507717154206654 -0.13656599061423505
N 5.701210266430552 -0.07530057471870037 0.4352284193456119
C 8.716303133451898 0.753936588615435 0.9488077133446554
F 7.947681865527473 1.5864689142619985 1.697522045117685
C 10.054653259017705 1.0880726902163076 0.7095840776874902
F 10.553146076809165 2.253908232639832 1.1943422599813271
H 12.812660319703122 -0.30182631486677886 -2.0176918155859656
H 13.315962777097946 -1.1504037641847724 -0.48735462618970365
H 14.133602591995817 0.3773082728634012 -0.9937363778257631
H 10.975060325786922 -1.6835770724153916 -1.0551911318246592
H 8.639768611342912 -2.2685546088662076 -0.6306261115664444
H 6.957847387210253 -2.8656742195549323 1.5225818659881232
H 2.3339565369948403 -1.8603030443723862 1.7182315784107876
H -0.024955486167890995 -1.364745092516084 2.454256635605416
H -2.320616433760211 -0.928106363225565 1.7367988129851903
H -4.8230109862076045 1.8870150327184596 -1.0304409030032708
H -3.0567822585992377 2.264032935327118 -1.0911999094359193
H -3.850213382869415 1.9374417748040786 0.4987242493725514
H -4.257255877589139 -2.649375971124219 1.275774402847172
H -3.603439989755434 -2.7289879776735404 -0.3926879673645468
H -5.602123585685445 -3.980052142119279 -0.4939506656446818
H -6.0175389110619015 -2.4205529462678697 -1.262002904004009
H -7.804668101784711 -3.2972229828462654 0.3152743523220421
H -6.628474413121915 -3.25822498952613 1.663877126873507
H -7.098815430452166 -0.9958046798795047 1.9324668654287365
H -9.271857640132202 0.7206690633187287 1.071960231451383
H -7.461090265402536 1.637361683923451 2.202931391791158
H -6.307457221765035 1.25981108656411 0.8665128157446443
H -6.457825179240553 3.5518025540323728 0.49407752599160637
H -8.218914485556766 4.74337024883171 1.071673880091989
H -7.186486307210201 2.6724977363901 -1.5743709689481111
H -8.627218753296791 3.6837548083725555 -1.1973614431919641
H -9.823436489058954 1.8588786477276065 -0.7056244126908756
H -1.247269988589121 -0.5730912735347616 -3.216620522273936
H -1.6805486841564876 1.097993688476822 -2.66817709120717
H 0.014660458766595622 0.700347627884595 -3.0431998717573157
H 1.4233636875228333 -0.2935927275158925 -1.4448707782989494
H 4.13596438931527 2.63065287822088 -0.7627668484235307
H 6.443019254550939 1.7192666819722475 -0.45291647653924616
