51
142011
C 6.670017388680747 -0.6440031009977568 -0.34905822092501715
C 5.920673708887857 0.23672556199596434 0.6452209304453631
C 4.444467937325823 -0.06052879179122765 0.6132200988383804
O 3.999884840595876 -1.048715876517451 1.387608897216976
C 2.723544463617415 -1.410734040889965 1.4485841015095398
O 2.3834738187808324 -2.333395993345823 2.2358610344819376
C 1.768561744028605 -0.7614369465345295 0.6532601947452553
C 2.186981087217882 0.2750866011276589 -0.17623560720312495
C 3.540599096350379 0.6485395131601279 -0.2149248639655877
C 3.994707999998544 1.7897328696010473 -1.0910029854945185
O 1.2316866204396903 0.9318497293284697 -0.9514389800907423
C 0.09354032118546227 0.24780810946256843 -1.4815068323178426
O -0.8728249564286739 1.19064526589212 -1.9093238476737482
C -1.6141387451196767 1.7046924130976635 -0.8176039518119503
O -2.390248974218897 2.7921164980668025 -1.2835704510314134
C -1.5827863243840252 3.9418706896395053 -1.41517921237655
C -2.5074843097704806 0.6012291051878895 -0.29206568110360986
C -1.9486124246891934 -0.6833021436199795 -0.2410706035714234
C -2.7151134963644066 -1.762875583940932 0.21086442015743345
C -4.048391963540282 -1.5804475591977034 0.6124888633313413
O -4.843561178778187 -2.663527818307351 1.027778116340228
C -4.405203602421512 -4.0171868232611345 1.0875129732171844
C -4.6084043064848546 -0.28667907125247005 0.6002045676956719
C -6.0308066322769855 -0.1333669991886434 0.981703199114912
O -6.763656253889531 0.7375919612797821 0.4432207028740404
C -3.8125286337579243 0.8198084174194745 0.2052722748760737
O -4.273909500128832 2.1328812332146425 0.3420319341950906
C -0.47368996053505735 -0.8715326889671088 -0.5326118838213307
C 0.2895126773410969 -0.9883850924626983 0.8090429282819398
H 6.309538335456728 -0.460578245159858 -1.383021999704208
H 6.524387088480184 -1.7165686059197898 -0.09821195978552316
H 7.755251881887552 -0.4134472940120605 -0.30527132504364374
H 6.1267499805316765 1.3065872957581661 0.4333366292375848
H 6.308137557227437 0.031028255100626245 1.6663664308452413
H 3.21090367965744 2.101063241716988 -1.812017816298015
H 4.883023550451012 1.491625037273304 -1.6845290804032063
H 4.251944513055838 2.663872254013936 -0.45715160244525976
H 0.4460307927515879 -0.2691977204570101 -2.4006459876037805
H -0.9458710945537292 2.021256846937974 0.022509598050270252
H -2.1946458812095546 4.75426918273503 -1.8578912774377092
H -1.2269334850106517 4.292738472919241 -0.421466339480804
H -0.7202460893094688 3.7619229024183083 -2.0948674195929784
H -2.2591561868246104 -2.7429144002542287 0.2528062472916701
H -3.558785157127204 -4.113487192261641 1.7998809613182416
H -4.099088625137693 -4.364626564487308 0.0781683210510844
H -5.241550942041608 -4.653151775542397 1.4429720535733417
H -6.477848257433022 -0.8195646339109809 1.6893174315283959
H -5.09745899475814 2.3862253175286385 0.8703705425275705
H -0.3528672860133677 -1.8437491405551876 -1.0634291227159203
H 0.09074752673579072 -1.9906892171543933 1.2473290807372253
H -0.08855334847787584 -0.22707345488630012 1.5271645184159135
