32
142444
C -3.4596108300984567 0.40274440256526667 -1.3453976917021868
N -2.7984606993115646 0.0688408801712403 -0.07314407910583913
C -3.0144767615066845 1.1636465431236427 0.8899218303509919
C -1.3545070645547275 -0.17035496033505476 -0.2910388542721084
C -0.7961593155182516 -1.1167364488213227 0.790932111302108
C 0.6926242977550559 -1.4886753789256169 0.6045787128456113
O 1.1081571043584546 -2.320763486622626 1.6612212583189392
C 0.9653747409634256 -2.1376951066440255 -0.7325526479925837
O 0.4543255180315974 -3.2233917961409824 -1.1149564244058507
N 1.882213006366322 -1.3931563512826681 -1.527739298735427
C 2.226903300504497 -0.2708088806885399 -0.7350582653927491
C 3.1064928054842618 0.7509099280785558 -1.0901629011844673
C 3.33023087091054 1.78706208172979 -0.1686668881193879
C 2.678295371516143 1.7821236966299105 1.0806883784221073
C 1.7967505043071383 0.7416240867357676 1.4176682690713225
C 1.5827473002635302 -0.27783263405062664 0.48706153905450983
H -3.3897411348946056 -0.4553628779481376 -2.0480338346330407
H -2.9961054711369535 1.2984337911986759 -1.8167528048040764
H -4.541601534384549 0.5971203606493904 -1.1804389431980276
H -4.101933721433035 1.3021542825634682 1.0727562202046872
H -2.5882264173599228 2.1220003077061826 0.5172951942397238
H -2.5545349549257637 0.9215783432650573 1.8696582398533297
H -1.1897873810962352 -0.6555726586738028 -1.2790882395180763
H -0.7880108210292627 0.7882740822584183 -0.3027890269111922
H -0.9116546750727551 -0.6482410971476772 1.7905889516358873
H -1.4002232424055177 -2.0505635744672213 0.794067944647017
H 2.0667685498877404 -2.5447374233211635 1.5225628739082366
H 2.2310198410510313 -1.6288835270671533 -2.483158937493215
H 3.6047117711124583 0.7463541815647365 -2.050841434447646
H 4.007857302745022 2.5928186330590965 -0.41920988836838263
H 2.8576622209548708 2.5841946396051934 1.784724147701356
H 1.2928995185161958 0.7328959612322269 2.375304488728428
