55
142813
C -0.85280474210692 5.500447484137901 0.7367691514032044
O -1.003628745343004 4.101098912962549 0.5325881458288804
C 0.061645977411387 3.202186259310857 0.6486523144306254
O 1.2014217416204218 3.6200956823112467 0.9962928809309358
C -0.13885657098054807 1.7611447355092482 0.3609115110217782
C 0.7080936656686275 0.8212819676332029 0.8801922983526475
C 0.8888072619055888 -0.7115436706502181 0.5795748155249109
C 2.341590829229277 -0.9335357146982454 -0.08667030212494792
C 3.1015282379161038 0.32739616492051915 -0.6566135871633693
C 2.515340667030891 0.8592687224869939 -1.9721571840675542
C 4.609738472855306 0.07110113411725114 -0.8337561028589079
C 2.360722408552311 -2.092400964278339 -1.1195400632626193
C 1.734304698171091 -3.300168656594977 -0.5120554884072895
C 0.5598716813305185 -3.1782913394553587 0.12301947521224522
C 0.11981616367965998 -4.332997733347586 1.0022975331646564
C -0.18372531100065945 -1.8226587192181913 0.02328196426292819
C -1.662188942706283 -2.0132571628478813 0.6026729657961952
C -2.879193489444115 -1.3124702099119754 -0.1299997887099082
C -3.1532868641262626 0.08715060147294276 0.474871311216556
C -4.076700571342253 0.008067652465031118 1.6974917703418329
C -3.609086584648358 1.1970974492523774 -0.44064961020621113
C -2.5903381473960065 2.036810510717682 -0.6310534024291596
C -1.3990382121918292 1.2509718151871714 -0.20990558235678428
O -1.0495160810114512 0.45864622082558637 -1.3201730350134595
O -1.9067546337283992 0.5145749001308635 0.8728460549673951
H -0.18105192077301235 5.924722529967726 -0.04006132165581075
H -1.845714073579171 5.98825984735384 0.6609961915046141
H -0.4268077407763907 5.696438056564373 1.7447853144400078
H 1.4615813478827875 1.1979861252547659 1.5634119605563797
H 1.0069222368422712 -1.0802002181059074 1.6249542164761595
H 2.9842067643306356 -1.2856265906310083 0.7541821421817498
H 3.0621707641955864 1.1526644011360159 0.07976952397237937
H 1.4282787970450368 1.0093566543386838 -1.880366901608986
H 2.7125043195237146 0.165334838153742 -2.8153099279008202
H 2.973555838001265 1.8407549181375273 -2.219357109986
H 5.0488257201978595 -0.3333326152577662 0.10351075845079813
H 5.127976299170429 1.0242063176494014 -1.0699681379713728
H 4.812489673854863 -0.6371555155921691 -1.6613265391686944
H 1.7999733732866119 -1.8200199086440199 -2.0384935505388317
H 3.3973522327985033 -2.3556597129140995 -1.4110279387052347
H 2.307858633715936 -4.222829353512648 -0.4625048502095798
H 0.9853071871096125 -4.9513578303444135 1.3296752699129926
H -0.3620029611717223 -3.961903763824606 1.9309534229023368
H -0.5832212069581046 -4.985922883443855 0.44062357738227337
H -0.3112314879780333 -1.6807828138426917 -1.0667591861801742
H -1.9517435303174644 -3.0782741164296037 0.5135835997527222
H -1.6614958744566388 -1.8052922052411178 1.6947697991650605
H -2.6994232579653 -1.2676059285491708 -1.2242702068497238
H -3.7931763318117055 -1.9377783401804327 -0.01440467567264491
H -3.695114643867825 -0.7311404483053464 2.4350864042376803
H -5.09933504026691 -0.2968715783790494 1.3848090607762944
H -4.140206577388459 0.99858225521076 2.2003344341911455
H -4.616882229976663 1.3481798982231323 -0.8131945886422055
H -2.612630774168349 2.8968120135823923 -1.2898719201669293
H -0.8267284458444564 1.0684399251869023 -2.0734168665001675
