54
143319
C -1.0168346191431232 1.3088481499500577 2.4814494548802513
N -0.3616906390558178 1.287668928780454 1.1641645947416381
C -1.3350776086056717 1.5885178242504006 0.09215258945099117
C -1.096765651271395 2.9879623583434682 -0.4391321654501668
C 0.19734328609582524 3.414397987983517 -0.7913351791430024
C 0.40444051639911294 4.698023306003088 -1.3045029405718898
C -0.677228144993628 5.565975917086891 -1.4806935387948208
Cl -0.415644223416345 7.175290450449213 -2.1273293505031488
C -1.9685327617737531 5.147466176748008 -1.1461890350427235
C -2.1794693298300363 3.86458953238171 -0.6317015197850825
C -1.1418810890130653 0.5333657967156782 -1.003163441032961
C -2.37792362707087 -0.33494304308894407 -1.1879177378475803
C -3.1171203197189072 -0.2525092416126167 -2.3817417756015966
C -4.271067313868165 -1.0226886323563407 -2.555245170817577
C -4.70382389341662 -1.8764812298160753 -1.5379976190952724
C -3.9841945608210763 -1.9608057423785041 -0.3443676310709853
C -2.8306364582824193 -1.1924293404933697 -0.16477582196169052
C 0.053574269918126874 -0.2562170988648191 -0.5103061462598363
N 0.14111062281051753 -0.01396628912679391 0.9321497770367665
S 1.814019085753273 -0.06823168380663397 1.4320498781470448
O 2.540930490453779 1.1303985078613377 0.8864275438287947
O 1.8981448060769601 -0.04769408987021787 2.933169333621398
N 2.553101221707353 -1.5289642301197641 0.8243229176329865
C 1.8994836160036668 -2.702877636739929 1.43307123199409
C 2.5326187043075907 -4.027221217492706 0.9510752658623735
C 3.7055275526988622 -3.8051769407955978 -0.013924494576746648
F 3.221324141783749 -3.352449373375286 -1.2313313726303996
F 4.3607260608409355 -5.006234110469052 -0.2246242394157477
C 4.6948470506645945 -2.7782508144401667 0.558901890493652
C 3.993231461980826 -1.5286593419223047 1.1354690726670051
H -0.26633660811376236 1.1863750110553182 3.286878928794918
H -1.772998367201752 0.4969930894621954 2.5673261805407606
H -1.5125903458315846 2.2902831168219433 2.64532092622244
H -2.384496636801192 1.5329771550724633 0.47303831262513535
H 1.0444063296661124 2.7517850094953777 -0.6751555925936454
H 1.4051788219313475 5.014853196323257 -1.5685789272362956
H -2.810064784911433 5.8139376208009015 -1.2868043706729129
H -3.188147028732947 3.5566386380696144 -0.38571713181954626
H -0.8739591601350166 1.0010596157777296 -1.9795223858146098
H -2.803592186778488 0.41002338062597377 -3.178686060694818
H -4.833247181181549 -0.9538408545032284 -3.4774888455508277
H -5.59882436437128 -2.469737570534196 -1.6736056950323088
H -4.323681146484189 -2.6184101781787503 0.4454352195616279
H -2.294000470448368 -1.2651879032312465 0.7721202474039364
H 0.960645910372278 0.1116611711641198 -1.0433676072715634
H -0.043903751463108896 -1.3444385978124869 -0.7137692118167899
H 0.8214026248374372 -2.707887285189989 1.1622029663386624
H 1.9620198669324815 -2.652939064676969 2.5439464623457013
H 2.8956739582161575 -4.598373908830747 1.8340090883848839
H 1.7627599762351698 -4.652546577492749 0.44859433669622306
H 5.403889398076019 -2.476154822812599 -0.24271015292431283
H 5.294545854900603 -3.259114982083802 1.363171264749529
H 4.1517191341102215 -1.4897938934216712 2.2378695358043434
H 4.471067509962569 -0.6248662456851607 0.6973681412037093
