31
143527
C -2.60229689628521 -0.40006005653137927 -2.382448254174967
O -1.4061390045352424 -0.10199465716062907 -1.687381721805654
C -1.5153039428242305 -0.10169233480323216 -0.2605088815498576
C -2.0994790665244016 -1.4487371110961247 0.2568350481804442
C -2.410145698728202 1.0585029695160708 0.24023833051162727
C -0.09004818871438972 0.16647236734604035 0.27256149105157357
C 0.4482607549618998 -0.5175121295312346 1.3101523806519808
C 1.8096697786226474 -0.20385991284557717 1.8727665831401124
C 2.7705879948557546 0.33309068615969384 0.8007163428475748
C 3.1797953370888967 -0.7611235919585864 -0.19867386002726664
C 2.133079168564253 1.5399578907022933 0.09529548754797147
C 0.7298017708986594 1.246400537723226 -0.3630292467040956
O 0.23955367801788524 1.9682093505330578 -1.272641748536802
H -2.7750331368437777 -1.4964364188449404 -2.406593617035108
H -2.480991446386077 -0.07194689960631617 -3.4349224243391046
H -3.4893470185056263 0.13061007152748574 -1.9839577424126291
H -1.4449492138844928 -2.295426814372058 -0.04159027233302411
H -2.2203522906831004 -1.4357196166865769 1.36062185896788
H -3.1186626556402564 -1.6348267201708369 -0.13964275094771803
H -3.4897057630475055 0.8322813779009319 0.11693809803560884
H -2.243166383031362 1.237103798939502 1.3249836598010036
H -2.185606810896407 1.996639532522528 -0.30901008353158754
H -0.08839632352546503 -1.3030922421185527 1.8172628095400267
H 2.235823420721974 -1.114543505406454 2.346777031187355
H 1.6891840278987758 0.5608144440591762 2.6704937989213415
H 3.6967967568410707 0.6803397508189677 1.310105016316114
H 3.9153662418766073 -0.3559997849120989 -0.9256771191996589
H 2.3013820248277757 -1.1448148949744408 -0.759488538235915
H 3.6572802032883227 -1.6080511715138255 0.3383925334316551
H 2.0947156882186584 2.3967399070819253 0.8023910258495077
H 2.7583269933725663 1.8486751777019645 -0.7709652351483894
