17
144369
C -3.0680441125637543 0.802117845708583 0.120062508380717
C -1.604217231625039 0.7413359213395752 0.3951525986922655
O -0.946125180513496 1.8111009849885644 0.5083662202511613
O -0.9716952146685905 -0.5035041852858628 0.48673925590372785
C 0.43453092925643577 -0.6579958202756673 0.6740354252646608
C 1.1947900796854922 -0.3768697411192229 -0.6319189234101013
Cl 0.6433465240840597 -1.5083964175908764 -1.9006817473000932
C 2.7093893314137314 -0.5263664272838505 -0.4494341358265086
Cl 3.370634169471821 0.7719715567283885 0.5814741013568776
H -3.233495153535991 0.96318877028299 -0.9654014273954001
H -3.528578775021285 1.6366694193248823 0.6897202752294498
H -3.551417590151003 -0.14965910131142732 0.42488066575588407
H 0.6319561420869774 -1.7027078740364936 0.9963788323932523
H 0.7787637113929399 0.016402028947174106 1.4878015443215538
H 0.9755768593480932 0.6551990779066517 -0.979731910719616
H 2.9528614749195317 -1.5126635688729742 0.00043648650024235474
H 3.2117240364200743 -0.4598224694504352 -1.4378797693980732
