43
144542
C 5.900551423767681 0.8262531885076474 0.522262510021874
O 5.018473756984305 0.1636779078432485 -0.3780782263659609
C 3.6391005632972884 0.004390216629596498 -0.1692832357225637
C 2.9962296063563088 0.4959308934197048 0.9815375159741775
C 1.6151703215339155 0.331219610485276 1.1571372028065234
C 0.8641098919659181 -0.3558779153418608 0.18317764206722237
C 1.5094838740633136 -0.850622535248355 -0.9613986270568489
C 2.892926738553425 -0.6714834874697242 -1.144294242589903
O 3.562509365549964 -1.151251977088562 -2.2814515256795658
C 2.936591190345463 -1.850826270481235 -3.3522355691117416
C -0.6395422101530424 -0.5274803843214683 0.32442611217370015
C -1.391700760347334 0.38189742384973663 -0.6714018365179125
C -2.8846178878112068 0.20427885443629318 -0.5636330834671663
C -3.5117156002618506 -0.8879898724566693 -1.185088452137336
C -4.891820376015086 -1.0713513503159668 -1.0617710757503107
C -5.654556645714125 -0.1714755891021318 -0.3127501020000171
C -5.037302408525449 0.9165282203064248 0.31930305738496345
O -5.785985960521184 1.8176174678459571 1.0729695663505594
C -3.6556637151688354 1.1009512650699302 0.19519569424739636
N -1.1082471426089646 -0.30662436383071273 1.7078187054446303
C -0.5386623545091567 0.9048482105914716 2.3124522764925635
C 0.9807555520173589 0.7935146503040537 2.440392326787288
H 5.907274354533624 0.30540264010839585 1.5030067453255929
H 5.58965137079928 1.8843985408221597 0.6522890962401848
H 6.927421209901466 0.8069677723860382 0.10335186631514422
H 3.56393439938841 1.0030503457485476 1.750496027746825
H 0.924290584219809 -1.37251013173138 -1.706698168763815
H 2.4786736447178854 -2.7908886983744323 -2.9783318592824775
H 3.7013744683999086 -2.107084036255128 -4.113644335053683
H 2.163473077273733 -1.2102144931279073 -3.8267784432720227
H -0.8802491614135228 -1.5808708259332744 0.0525709001989218
H -1.0797271243938578 0.13284639342885138 -1.7093129479943145
H -1.116282170452601 1.4468588002382563 -0.5156748936406874
H -2.9309857441388947 -1.5968827397453256 -1.7623946170090956
H -5.370184125692617 -1.913467435717772 -1.5449878689236158
H -6.722748568086562 -0.3216877912057825 -0.2215629495696303
H -6.787771506801688 1.7117720206198666 1.1829453157658087
H -3.1855130850346423 1.9409381506561485 0.6914467695631757
H -0.833967696732232 -1.1321805888457834 2.2918402249562337
H -0.9777207528150049 1.045710255509977 3.323437592053945
H -0.8056762646310189 1.8029536528391332 1.71702663981742
H 1.3899640939998439 1.7847068019526942 2.7341590300940712
H 1.228681774159975 0.06405720299406363 3.241529242080449
