27
145077
C -3.147383688654795 0.25779064543958896 0.7956841074449976
C -2.1380844278350404 0.15710038572092588 -0.08420602979667334
C -2.4334775785377274 0.3901119956647008 -1.5458010506520659
C -0.7354386042544816 -0.19027253229867813 0.39884469549293927
C -0.25931951359399513 -1.5351471467200029 -0.18427272972687367
C 1.1840225766692425 -1.7910697232173938 0.1588644126545519
O 1.7329298995903188 -2.8023907504442316 -0.25045177982692407
C 1.9377432081406902 -0.8305335730347612 1.0396426211688767
C 1.695769956005541 0.6478948181207621 0.6343853469139807
C 2.7762914050189855 1.126449226636034 -0.34565401466296697
C 0.2743802532639395 0.9242089641708741 0.0578992460634785
H -4.151862752507183 0.5032917859100341 0.46309079563970373
H -2.9894590862374404 0.0974704554246297 1.857735347634105
H -1.5306634834233526 0.2704343777917905 -2.1769939616035594
H -3.1965910801288566 -0.3375745791273705 -1.894465514911497
H -2.8221174491376324 1.4204769049796668 -1.6894848587592406
H -0.7493983838500191 -0.29251952729046227 1.5085936115355838
H -0.35590984109302154 -1.5378022835505416 -1.2905759342377172
H -0.884292064786644 -2.359123079808609 0.2229492060417189
H 3.023564519887691 -1.0730680895015057 1.0378187427815404
H 1.581774336489534 -0.9809403063503309 2.08191013590592
H 1.8091365766789966 1.2580653292632782 1.5586279113983483
H 3.7822610709023707 1.042493509715579 0.1182935524473318
H 2.607843032479129 2.192310182105379 -0.6104212102469049
H 2.7566823133009373 0.5160003879075147 -1.274072398498854
H -0.09680617497453017 1.89307340449108 0.45933988711638657
H 0.3284049805873424 1.033269218002049 -1.0472801373161853
