46
146167
C 6.010803452755552 1.1843089819923829 0.3085198556376845
C 4.561146758033149 1.3306935937201239 -0.13508567295210858
C 3.6989077115188143 0.15268677919790924 0.3656947045170603
C 2.2714070439468217 0.15718218599367856 -0.21756060161439764
C 1.446433705644643 1.386921887199555 0.22419125506162474
C -0.03672926581801851 1.3668205310687556 -0.19134028008071322
C -0.23472669779151115 1.2398185864171098 -1.715282448352991
O -1.5933212281778426 1.3128046975561252 -2.0682918374598467
P -1.0599203171890565 0.1614802189330106 0.8763873736835968
C -0.8543218982068141 -1.5986259242754375 0.3272444125019743
C -1.0227748934983245 -2.007048054067307 -1.0101515345272816
C -0.7863735723515344 -3.3355600366370184 -1.3759268911474807
C -0.46883693595884884 -4.290516189643604 -0.39850055731671713
C -0.40067181851093264 -3.9085886407406725 0.9507687961800164
C -0.5846228926701647 -2.572977140074029 1.3031828864479165
C -2.8679630755202594 0.5401141988627426 0.6827738349775558
C -3.3066140880753863 1.8721624942576174 0.5305470398381826
C -4.668929981328638 2.176056342845146 0.5406751021539393
C -5.61950156297657 1.1667436246945773 0.7449317468076213
C -5.197360856229407 -0.15522738034727493 0.9177902850096439
C -3.829699466584963 -0.4647046806027524 0.8997940172449359
H 6.0794181898485995 1.095489598553613 1.4080258726009027
H 6.593117327314591 2.071013072848924 -0.020939796165965283
H 6.459920993645631 0.27757883723137183 -0.15286983827985773
H 4.1710300395704465 2.284155865039799 0.2796341889848671
H 4.520427565683024 1.388164115495829 -1.2448755217101932
H 4.188808168344773 -0.8018416958286795 0.07416670434473221
H 3.635275754559324 0.19020753307901458 1.4799602524630846
H 1.761677612432383 -0.7704374903130076 0.11538843263674307
H 2.355121484436965 0.11418245237961824 -1.3276679552555803
H 1.923944848152342 2.2982380826049047 -0.21312237816951313
H 1.5043848438580059 1.4815066105794448 1.33032357028876
H -0.4021917075995324 2.3864870493555492 0.07765151842387731
H 0.34652655297011536 2.0451065625317755 -2.2298371558903147
H 0.17045385863586934 0.27600372744268536 -2.073098986648916
H -1.8465111036794852 2.2642188769697107 -2.05611541337722
H -1.3359263984699865 -1.3049519914798444 -1.7730567549605483
H -0.8565435016781924 -3.630194294025405 -2.4183155914169037
H -0.29252884755578185 -5.3184826699773655 -0.6794532817833583
H -0.19729850164276355 -4.656218257933997 1.7130227753339748
H -0.5212428556350368 -2.290176778255547 2.3500978665942456
H -2.591131684998362 2.6816310201115305 0.4219013525348471
H -4.990409268002651 3.204987835301527 0.4216440090962485
H -6.675373572782881 1.4189138417259801 0.7810554874987644
H -5.926328005876586 -0.9301437752244458 1.0937898641348947
H -3.5309519125415094 -1.4899842045636233 1.0823292921122134
