35
146377
C -0.18353831532630174 -2.4707553752681792 1.1876647989059637
N -0.906701289702048 -1.5236714010723886 0.30437833873505166
C -2.342358250032276 -1.6311404226705024 0.6319156765369479
C -0.35235472978720883 -0.1341099932765199 0.4484192323119206
C 1.1616913689527246 -0.1271090701688444 0.15244600209087938
C 2.0050356226218526 0.5786337950232829 1.0382564601231263
C 3.378149111339455 0.6684616137698335 0.8084509471461416
C 3.9418938645661674 0.05079244282117674 -0.30430655921103
C 3.136147720923773 -0.6695342387851554 -1.1844164667019372
C 1.7551952755522273 -0.7729568902773386 -0.9707344667865397
Br 0.7988777946644607 -1.8952545466136774 -2.2047787544407402
C -1.1018940621660986 1.028101290850965 -0.36570169387894025
C -0.24332906661327894 2.325497368016654 -0.3770823513464097
C -2.445703563331187 1.4350223775617628 0.3055738302516304
C -1.3698242687360407 0.647341188472622 -1.8374745444590719
H -0.5688076868352582 -3.5049972014292794 1.0535708913837711
H 0.893209265626198 -2.531634060249625 0.93366760096711
H -0.28612971344756744 -2.180309114841088 2.2571452037847104
H -2.6453237401931062 -2.6842251229097336 0.8243389205716785
H -2.6021812354662996 -1.0386556137293002 1.535834978377165
H -2.955530989742582 -1.3419330336552564 -0.2402790323852968
H -0.46274863516914555 0.14211598515541998 1.5231424420364121
H 1.5959062125514207 1.077820868742698 1.9078039440725645
H 4.006067872906807 1.2218220807695472 1.4948089138652938
H 5.007583256917461 0.12106637699486739 -0.4801318338786741
H 3.59242591188476 -1.162790231967306 -2.0333492231381234
H 0.7089901940016656 2.187478301284608 -0.9315862338535824
H -0.7770405104568402 3.158041181871965 -0.8856330123155702
H -0.011539115220005598 2.6496650372945574 0.6602481399486682
H -2.7873975893824494 2.4324929055094646 -0.04729601471803147
H -2.340522689467335 1.4956398466030183 1.4095766697498704
H -3.281529166867827 0.7593214170657102 0.05422484530563211
H -1.8630473850805336 -0.3389523692407863 -1.9296765455147271
H -2.028201187378578 1.4016185939664854 -2.3208057961567046
H -0.42547028210700577 0.6270960143803423 -2.4182153073791617
