29
146631
C -3.410081738831188 2.6400349855808853 0.45626136733154615
C -2.9328237450979673 1.2816997959399838 -0.0492335217195026
C -1.5399557988184847 0.9460009820331778 0.49586089900799557
C -1.063147477169918 -0.4193330039317101 -0.016762860204642335
C 0.3221948745332101 -0.7786524744553155 0.5448655091623013
O 1.2868014732706077 0.15434358831822817 0.09040997661211346
C 2.2307405397230173 -0.5622582833638955 -0.6895183696816766
O 3.52688421363555 -0.40805566852804087 -0.14884770078552415
C 4.030264382176529 0.8693970885265423 -0.47186296067024197
C 1.8527211957798533 -1.9888389891235578 -0.6301662580935525
C 0.763352700647354 -2.1141167236533254 0.0753658662492763
C 0.10406401437245934 -3.388449222444572 0.3996088571791528
O 0.5507895708680351 -4.479496120665284 -0.043938870881970446
H -2.7143846692610816 3.4408041508472977 0.12631401388567082
H -3.4698691807467243 2.6397042237085055 1.5655445637821481
H -4.4193083373888635 2.8555085602803554 0.046387195074742184
H -2.9057802332112423 1.3009808877231084 -1.1606562457836076
H -3.6591221576603608 0.5034538959911727 0.2719642067749551
H -0.8229754724783191 1.733664420089069 0.17566746060093325
H -1.574244566603408 0.9297968520385793 1.6076497843999333
H -1.7979674768121487 -1.1950692075108613 0.291852629444338
H -1.0189877483879006 -0.40329855330296005 -1.1286742636986342
H 0.29907816253199226 -0.7718228693820225 1.6566617932332777
H 2.1733681890662186 -0.23403090632746695 -1.753745407153443
H 3.3713896024069188 1.6780677119984868 -0.08439956022352453
H 5.023527990804072 0.989010639769544 0.0073121604702393005
H 4.17241793412149 0.9764471343707336 -1.570019074702463
H 2.396907854811271 -2.8028178860266215 -1.092756392130731
H -0.7758540962809757 -3.3926750085000372 1.0288552025208908
