61
147207
C 1.799948351111928 -1.8945781494260765 -1.5626661253457628
C 1.3439793983907877 -0.449753312436309 -1.315825718894385
C 1.395487016207476 -0.010141123173686597 0.1879041073494929
O 2.555472903487471 -0.5774781117358156 0.8065430268415522
Si 4.157576443819336 0.05981757706056572 0.4548130085625327
C 4.574587658602943 1.480110053964907 1.598675236131114
C 4.538351121816533 0.5761339004576665 -1.3098390225016256
C 5.3576800578199695 -1.3120716107717592 0.8572443959099766
C 1.4194701179889913 1.5640638002569698 0.30020376706414387
N 0.09662118049892503 2.228456813763483 0.22642670344279647
C -0.36723288433137274 2.458617498239462 -1.1489536157228184
C -1.6899207307489637 1.740020423809193 -1.3498664552330002
C -2.0197270024199 1.0621429984492712 -0.017305515634729894
C -2.0165575132213953 -0.45754820429015763 -0.16106625997788362
C -0.9819394405756252 -1.2314194039496154 0.23776783070833699
C -1.0588526502180349 -2.7057175697410694 0.11642416229800134
O -0.5129778552137496 -3.4421126513044564 0.9834109736014397
O -1.6975835698739188 -3.2779808877956547 -0.9886537437742041
C -1.77767490454011 -4.684070404422187 -1.184999327981527
C 0.16454400626793828 -0.5862363405551688 1.0259765726567975
C -0.46259915791929773 0.48856642621229973 1.9295541937187421
C -0.9890536008329842 1.5984616039759414 1.004037452746325
N -3.35674247610135 -0.958761384479847 -0.2487019813121298
C -4.18307972521411 0.1267309222208445 0.13181490264238563
C -5.560381872944178 0.07393315982580298 0.34515998476684756
C -6.217931867613912 1.2460809965243098 0.7515409454813523
C -5.493341148417218 2.43960086378492 0.9366088080961397
C -4.105482007953513 2.4669394495192525 0.7233512305538792
C -3.4641973834309114 1.2839368212418267 0.3411768584081157
H 1.5147501644727863 -2.2047784085287816 -2.5899322340723194
H 1.3480191679258877 -2.596744102207633 -0.840496405864283
H 2.8998543278742477 -1.9843907801881269 -1.4694694121604663
H 0.3281268211956208 -0.3240418618245077 -1.7345653343271763
H 1.9760588714281613 0.21028483749175064 -1.9388839645209208
H 4.128982413040494 2.421382500405786 1.2187968687428463
H 4.187291734948682 1.263007851480555 2.615182643050075
H 5.676216683693066 1.6019932053322583 1.6431751935254457
H 3.949673990130322 1.4644078268393388 -1.6075267686370063
H 4.3519433471843065 -0.25908900899846854 -2.012335675844066
H 5.612969883146543 0.8439230190679881 -1.370157084428336
H 6.396481148345248 -0.9553761630329716 0.7013242236915912
H 5.226557823622789 -1.6186465290432994 1.9151994780900372
H 5.160949657059575 -2.179444153082282 0.19428051252072717
H 2.1060577243084464 2.0197701608370564 -0.4406243665692468
H 1.8527127758795872 1.8361610951168392 1.284077879934515
H 0.36626311764635 2.131102588768106 -1.9178080888944151
H -0.5131359584243252 3.551407912668107 -1.2886964256077709
H -1.612636431544444 1.0101477660222569 -2.186190824658891
H -2.4647528583587848 2.485160014252211 -1.6405584807937472
H -0.757078106789181 -5.114885520561086 -1.2649957338492566
H -2.329675073847474 -4.889679668190085 -2.1248803821855553
H -2.3198426202520914 -5.1556614757294605 -0.3381930211884749
H 0.5544189295235215 -1.3557498994555617 1.7283384725357769
H 0.27830748235771663 0.8882689050448516 2.655359792183362
H -1.29961985790938 0.06232096112311891 2.527679294488188
H -1.4498416473789542 2.385062592026792 1.6393648825622449
H -3.662140641715471 -1.9565386372909026 -0.23090100131650937
H -6.109924990422791 -0.8469720632295955 0.1997578322219913
H -7.286960967419652 1.2331066297239184 0.9194996310805724
H -6.009268896234107 3.3416067995785 1.2388678808568776
H -3.549200477928444 3.387139450358417 0.8445542248322891
