80
147235
C -2.842296366066076 5.36080376690869 2.4505589511170895
C -3.0846579152085183 3.9209604504861537 2.1081314563185183
O -4.074669531210791 3.3340926544545257 2.6239244305910217
N -2.2514436062766046 3.220418005576196 1.1600759263904787
C -0.8464287833905821 3.617830696829519 0.9389025326887765
C 0.060032993917683374 3.3929156240318754 2.182397496585798
C 0.6717816482377362 1.9827637794094264 2.362328004875663
C 1.4240472549035303 1.4840996900818562 1.1199390906048792
N 2.327433868172111 0.35108007265055424 1.405016018760001
C 3.7496901504773015 0.5836037005343064 1.3308908081672153
O 4.219186217703254 1.6959349682778884 1.7003893339069147
C 4.689771281952574 -0.48955941402659675 0.8466475728345095
C 5.826050067593863 0.08475325597996895 -0.00835801761400491
C 6.716786575788203 -1.0198287143666966 -0.5113553386497556
C 7.802014559675559 -1.4640288530818968 0.2635343738256237
C 8.605905089655339 -2.515877589051668 -0.18661119366106702
C 8.327271120802013 -3.1380047850598265 -1.406392421568071
C 7.240935430660891 -2.7119157291247658 -2.1756802075491413
C 6.434639724478484 -1.659295643815845 -1.729757453319755
C 1.8351406406639028 -0.9352953004080483 1.9489019654272686
C 0.6032043137988123 -1.5085517934315402 1.224960218253443
C 0.7337439219972842 -1.6034479691517134 -0.3052206822827462
N -0.6010535752607347 -1.6638484589767355 -0.9259124825447639
C -1.1988741593308163 -0.4470422589078809 -1.4907360924490425
N -2.6665474414091785 -0.4313782519400089 -1.3132323725263833
C -3.10885622657917 -0.38601355647424107 0.10972304322946326
C -2.5736205614363437 0.8113659633600735 0.9112885338722384
C -2.8590661858040125 2.1799809703253983 0.3102973345433213
C -3.2455557257530567 -1.5881829724985124 -2.0480081444195353
C -4.7606702783793695 -1.4500678795259019 -2.188422637828874
C -5.645263322791623 -2.543056798082566 -2.0549790398088454
C -7.022048755808507 -2.3685019304744235 -2.2301400898037196
C -7.535190578518317 -1.1133494660484433 -2.5597422053623338
C -6.672066441430049 -0.03017333902956827 -2.7258079126286034
C -5.2955958184098755 -0.19774475947072143 -2.552342127962205
C -2.7595624049533694 -2.940847906373633 -1.4567791594838595
C -1.2998518111575137 -2.9142760652601174 -1.0815736359904464
O -0.7130230034661267 -4.0040215736673455 -0.8408969730631116
H -1.8593375225685158 5.488780561904074 2.943781336461741
H -3.628082211550396 5.735443018945736 3.139173687609123
H -2.8662190869024298 5.970466603525361 1.5240214136886494
H -0.42640158166967146 3.107117683772967 0.04955123487168313
H -0.8237852523632518 4.6975803751980525 0.6812827248063232
H -0.4934846829342395 3.642592568301558 3.110794253793658
H 0.9034798430991446 4.115850620867857 2.117610799510663
H -0.11513703296681412 1.2634128380283178 2.6603064723658782
H 1.3912442892500598 2.0334097600951235 3.2079287415384106
H 1.994992299990586 2.3288311046810892 0.6755651782261152
H 0.7007084603247092 1.1814603956359262 0.35503609146254006
H 4.12526074213136 -1.2201501930158398 0.2273940606324184
H 5.110896179965572 -1.0186172316616473 1.728589326173649
H 6.427223011654309 0.8034020285137631 0.59133948322653
H 5.399619172203221 0.6462289921061818 -0.8687869425878407
H 8.023172872900135 -0.9975691023255021 1.2156322150452268
H 9.444132345151491 -2.849089077403779 0.4116424845681781
H 8.949834836346707 -3.952739022219544 -1.753281691509107
H 7.021303494911188 -3.1982190677614497 -3.1171669544631873
H 5.590599197787337 -1.3455550509739505 -2.3311673091587792
H 1.5802893330423748 -0.7905657712382661 3.019694117987962
H 2.6277213082925166 -1.7094928220052865 1.925565589593809
H 0.40582688563332253 -2.527226221825127 1.6215186627801896
H -0.27551108953240966 -0.9126650865242878 1.5072990367665147
H 1.295088208806139 -0.7395227067937168 -0.7146245455626737
H 1.3297997381765698 -2.5005681142602465 -0.5782369802648285
H -0.7508212649455774 0.46671356052058527 -1.0707775335602339
H -0.9516808712278362 -0.40207658520637546 -2.574765232649443
H -2.7970188715180377 -1.3018415135219397 0.6539746560715659
H -4.217839759525185 -0.3398058829190494 0.15540460758162591
H -1.4922161650872037 0.7227884854720918 1.0162112183950194
H -3.0028340867629453 0.7685431029538504 1.9353398164654385
H -2.4453729640162036 2.2423678077230758 -0.7190103619325422
H -3.9583633289346314 2.330776118497795 0.22433712193061386
H -2.871292866023051 -1.5588233820926387 -3.0973357217838107
H -5.289114692958442 -3.536043569917514 -1.8215411983424212
H -7.692361730236056 -3.2104094650701733 -2.1169437011149674
H -8.600017864421261 -0.9827924020114976 -2.6972750128909704
H -7.068870990912941 0.9403147539162565 -2.9944119446886455
H -4.644256384398969 0.6547446046975064 -2.700870676111005
H -2.9212341592385047 -3.7485553796470006 -2.203393320621836
H -3.3412301268100855 -3.1947899276200884 -0.545364107787191
