43
147538
C -1.2640877336973997 3.888746006630876 -1.6852580900604106
O -1.3288155962384263 2.501193540352556 -1.3812709883663938
C -1.4801932913129552 2.0221102407698326 -0.0756978147398437
O -1.602472930454317 2.8248458553226263 0.8899774054758951
C -1.5213164753116797 0.5380233579473277 0.1791280399703774
C -2.852919143819535 -0.006617512840386139 -0.26164582000562325
O -3.2370223386155854 0.14363141708381572 -1.454973373253349
O -3.6399550883757406 -0.711751176189464 0.653410914685323
C -4.882537398241734 -1.3044779361163246 0.2972114847054115
C -0.35375512360494094 -0.19809684398638755 -0.5321637161745543
C -0.3979506474610737 -1.6948667506898787 -0.2791332286450072
C -0.22592299273119465 -2.2175172293347805 1.0179036307243352
C -0.2896069995889233 -3.5962214029043396 1.239343175989095
C -0.5280051500497935 -4.466818699895346 0.17362542111285545
C -0.703744112518044 -3.9603170826476686 -1.116075237229347
C -0.6406051095593597 -2.5823229227836118 -1.3435631763221663
C 0.98785200740393 0.34480066700442896 -0.11127984914853327
C 2.09007296936775 0.4950370947731033 -0.9497081439748459
C 3.074352865869521 0.9935328810185282 -0.12901588125651006
C 4.395168067017347 1.3455695011922326 -0.39720963296345246
C 5.171560401059176 1.8331267772958737 0.6706666195541203
C 4.614312694127182 1.9539223670372523 1.9640687191846695
C 3.275936462247415 1.5880279841794154 2.200729286235278
C 2.5335340669832345 1.1095692638566406 1.1238143646908691
O 1.2845909360303684 0.7154033004301759 1.122956819830321
H -2.2018791239718354 4.391741234451723 -1.367551514012605
H -1.1402887548919929 4.01638166272173 -2.780136303353161
H -0.3960400780247781 4.350274612109547 -1.1685017875319086
H -1.4303452911985823 0.37447557490463007 1.2764376618708366
H -4.7269157004970905 -2.0608107025202815 -0.5011704264677453
H -5.5887702496627965 -0.523868091296666 -0.05680184164929472
H -5.31581959672863 -1.8051953482002217 1.1871236278338462
H -0.4543562586409477 -0.011311335215475919 -1.625881687223545
H -0.04400689710938913 -1.5594620488076507 1.8576495650144287
H -0.15563194527241828 -3.989724824178219 2.2386692300551125
H -0.5779870618094919 -5.533931911315097 0.34739367798495946
H -0.8910291726515241 -4.635986432952339 -1.940616824072076
H -0.785093097172273 -2.2093480645140007 -2.3497988167914685
H 2.157780668792338 0.26809858685466664 -2.005659809421909
H 4.811348397312211 1.2482032348704364 -1.3916519202492375
H 6.201854478910717 2.116973737806884 0.5001764495090812
H 5.2205102795224105 2.3297532027675643 2.777961472741982
H 2.8381990645688564 1.6752042150062811 3.1865183157441908
