41
147599
C -4.10227588334482 1.638870298904681 -0.6803779288177971
C -3.214935094065548 0.7979275853288834 -0.1208171622959638
C -3.4071840097788866 -0.6937128440930049 -0.28422059751441964
O -2.8991465450678287 -1.0974911447577853 -1.5278597105927816
C -2.7289730259964453 -1.4647405342841793 0.8605667432640604
C -1.257297559397009 -1.0714432691159108 1.1290159081535351
C -0.8353310081885973 0.36052138932592726 0.6440363190011716
C 0.3033358808361269 0.9044081632145826 1.5633870737417142
C 1.4957428744814307 -0.02206891338661609 1.6613345770142351
O 1.608186231844678 -0.7619346744344163 2.675993251505306
C 2.477244940667619 -0.16370976400120213 0.5633136370333752
C 2.7670409995143634 -1.451141600850526 0.07977450859979962
C 3.6611509106287836 -1.6297806219185924 -0.9799597940992185
O 3.922172418779894 -2.91492097512914 -1.4505841301356515
C 4.2832442100540495 -0.5184043084368071 -1.5591977609859822
C 4.020453477405619 0.7639486549561609 -1.0733567205859207
C 3.13019336941101 0.9501473084014191 -0.0058214534210381755
O 2.920161541479455 2.2322922440665547 0.4999307149824396
C -0.31804338758385403 0.3310010593349169 -0.7961692799780965
O -0.06724364404378654 1.4098388958805783 -1.399735521754193
O -0.05842740499849181 -0.8753976997289081 -1.4436759870534082
C -2.073504627603719 1.3120134045470264 0.7454898191648566
O -1.7255485205318124 2.626088184600071 0.37144172917205875
H -4.925416551534915 1.2595101152197685 -1.2790984765928264
H -4.028505702357346 2.71336880700347 -0.5483368211706156
H -4.498681092416373 -0.9225971299949145 -0.23801987597066476
H -3.2717756486363316 -1.9993242922420338 -1.7120270304880367
H -2.78962512817515 -2.556600976848297 0.6626075797168722
H -3.3179906747459276 -1.2799592785616152 1.7869612088809876
H -0.5861482302868543 -1.8500445368378924 0.7065822538280161
H -1.1132903019535125 -1.1441029043512565 2.2307262757337676
H 0.631057626181655 1.9017533130761013 1.2116450911903698
H -0.09893652936362178 1.0662787872519666 2.5882070257736327
H 2.2797440160490186 -2.3174605688087135 0.5119619618328206
H 4.567224865957162 -3.077980946199016 -2.2151944153270655
H 4.976342668561721 -0.6478370712861368 -2.3806243320176077
H 4.520269688637585 1.6141484139773652 -1.5198321843477074
H 3.3887113377851232 3.0419429392422157 0.10994433835932804
H 0.30919716382717244 -0.8908330743786166 -2.3876834859438234
H -2.4484682068114796 1.3071391607957792 1.7981656162069133
H -1.4947254452201644 3.1202884045181136 1.201507035937557
