54
147579
O 1.097741312162046 -0.4646603016403358 -2.3237395028822925
C 1.166056153271537 -0.10251931268045529 -1.1166935829999536
C 2.368660000741079 0.6495492493619638 -0.6748785985608416
C 3.5996148727860513 0.4448312070117737 -1.3252884460625494
C 4.731662418435145 1.1730145064060633 -0.946474960592378
C 4.645687532190589 2.120139850700949 0.07648210620993658
C 3.4274863564828832 2.340141355445497 0.7224280920605204
C 2.2946623508285366 1.6120924228630977 0.3487065946425359
N 0.07342724084611518 -0.4251262057040841 -0.22059411556575703
C 0.37595975479719496 -0.8777609183713798 1.1556291483241474
C 0.46367490438754433 -2.382208670188972 1.2483719332064573
C 1.3085571567733256 -3.1079434643238386 0.3898257689809714
C 1.403584937544812 -4.498201938226814 0.5021991220361529
C 0.6718374379259994 -5.174268378566397 1.4813539074493993
C -0.14888819327019384 -4.4598821883896544 2.356809708552282
C -0.24645246818349323 -3.0693959293025013 2.248964897055478
C -1.293704462895409 -0.5076980965853969 -0.8077672508812352
C -2.3514427775975313 -1.1875972234589196 0.09401698699451777
C -3.6998564422191054 -1.3419699285370008 -0.6347163581118592
C -3.9346487642027155 -0.24634517841862802 -1.6842003727224273
N -3.282097992638403 0.9985777825589857 -1.2720823238397354
C -1.8094033834993168 0.8856406125884467 -1.3232694541528838
C -1.2187758686288566 2.069397775754396 -0.579000293747365
C -0.3720428596475241 2.97381732934145 -1.24765498595806
C 0.13570522407322827 4.093618205472321 -0.5818767394460543
C -0.19614116497085435 4.323666111388876 0.7550960776438392
C -1.0402331112954666 3.4367386611682584 1.4274785321932297
C -1.5537365277927762 2.3175866748539757 0.7651550663542891
H 3.6876870859393747 -0.28458347367051373 -2.1212498480121798
H 5.675885307728136 1.0037610279690297 -1.4479325778439407
H 5.522415745847502 2.684079836496805 0.36725669987748993
H 3.3590470851683443 3.076765829024092 1.5122727477864502
H 1.3620102300787265 1.80430363747038 0.859098854511258
H 1.347353303475146 -0.4849749876090021 1.5105935416613023
H -0.37879922124726345 -0.46789138111585366 1.8587278582394444
H 1.8988931719813662 -2.6031232037969723 -0.3623486498431111
H 2.049393135074459 -5.051275649167102 -0.16718570382618056
H 0.7476895239183936 -6.250383061531156 1.5673790482583438
H -0.7075098721469205 -4.983312452667035 3.121849997194934
H -0.8825473391951307 -2.5306020373274114 2.9400592608072387
H -1.225126659421114 -1.177204504797759 -1.6959853816824366
H -2.5096858214910025 -0.5957777855933145 1.0180979272286117
H -2.017539642758379 -2.202553544706955 0.38359654350606953
H -3.741363242622396 -2.3319693609415935 -1.140013895404641
H -4.518335710114459 -1.3174288345949607 0.11762612093244215
H -5.0279435633217355 -0.07521193525616118 -1.7927641203811946
H -3.546872433254151 -0.5742236000576373 -2.6759475764564886
H -3.576782246562426 1.7512495050274048 -1.9382347806277103
H -1.4979127667580157 0.9561921962760316 -2.3922084500052416
H -0.10243347958235591 2.813577437095945 -2.283844220663882
H 0.7899380364717687 4.780890258523188 -1.1021099608758633
H 0.2001469575276808 5.189261991232654 1.2695918372707935
H -1.3014533126800178 3.619473445918177 2.461581384820466
H -2.223047908459978 1.6577266372780437 1.2978123873476608
