75
147878
O 2.0697429582710947 -5.830334205913366 0.10536365120921204
C 2.1677450781276715 -4.574635961124255 0.05909073499686126
C 1.1561611744844107 -3.7290010572718892 0.7085925599402582
C 1.1756293667544595 -2.398594403441203 0.5278802422358562
S 0.2957926604528756 -1.3957162959659104 1.7632126631460308
C -0.8599573616175151 -0.4758578106447774 0.6727261309269855
C -1.142512779678058 0.9244811933047735 1.2825398083816129
C -1.939558072034683 0.7719643191383218 2.56873293095034
O -1.8338632932244054 1.6351718888858653 3.4802237301001266
C -2.881081595437548 -0.3616279145193272 2.7347232119494627
C -2.9733136756754126 -1.2922789450602339 1.7766647849901134
S -4.166706794036968 -2.6316329280959496 1.791900943531645
C -3.6830680742491144 -3.025668155754787 0.05807593572623647
C -2.2208640731066702 -2.5932130979802324 -0.07517456893822555
C -2.2392643214442347 -1.1665792872018883 0.48244056762764875
C -3.1081542835479556 -0.29334881271019514 -0.4021777757003347
C -4.182768781022505 -0.8211544746542685 -1.0633748670273615
N -4.486988277852568 -2.21910698530641 -0.8758917573986605
C -5.0212633148860055 0.044423882551057545 -1.9596287041383293
O -5.951796055399017 -0.43391997368250923 -2.660146366313235
C -4.705017836522275 1.4832602766861498 -1.9899711005908836
N -5.152865282767327 2.4624272637178426 -2.802404441147047
C -4.409082781002671 3.56633150818191 -2.5044451286027174
C -3.5159633726606865 3.2665529741127703 -1.4804482092397853
C -3.7233468493728137 1.9704024943929228 -1.2088426558150536
C -2.866811107209008 1.1731650965516762 -0.3876761636086303
N -1.9187201232565603 1.7442337153669232 0.32163746152999306
C -1.7899408494396198 3.234152009043093 0.3575941569966349
C -2.306441227290738 3.9627636486428512 -0.9325716755347412
C 2.054122241761062 -1.7948638798773215 -0.5903494174587525
C 3.3313758307480934 -2.6082926032764933 -0.7591438885930013
C 3.3396644890010627 -3.9308144514398036 -0.5613461900739872
Br 4.886767604622836 -4.959749203584558 -1.0157571773077598
C 1.263796937282692 -1.9300860254819312 -1.9326143857898819
C 1.7895759463349898 -0.9809995078625204 -2.9993006868430023
N 1.7361686096838154 0.3738504352877512 -2.481248619369638
C 2.259796870709234 0.6677007972565135 -1.1789239353307386
C 2.4524122443768404 -0.3432171205486773 -0.2708859397263808
C 3.1070536693262794 -0.027592040764789362 1.0384280034886806
N 3.5517701625138716 -0.9378255515816367 1.858933653498944
C 4.167349329874828 -0.5962972127916644 3.1605737141460977
C 5.00398171196682 0.7164070956783736 3.1064193526590502
C 4.287283120756651 1.7443001629863915 2.2781694648054973
C 4.674173396974544 3.03048432022473 1.9212963481380174
N 4.014778373410157 3.409983050612963 0.7998769299516469
C 3.239515750104986 2.362180909018696 0.44618803780132715
C 3.3890571468529562 1.3588213381006224 1.3378767024512386
C 2.650108605863312 2.0821306104206974 -0.8658964690745071
O 2.5339127482752084 2.998946852147396 -1.7231785183646742
H 0.5111498756316115 -4.173319312978765 1.4591633389981307
H -0.38515244869179827 -0.2979721191491054 -0.30696261164143296
H -0.17011593375272593 1.4220804563728118 1.5008845533171127
H -3.4797396341529643 -0.4417519565068876 3.6342285896896493
H -3.8111987167132306 -4.110515211693459 -0.1505747122403258
H -1.5814230520356412 -3.262938899943901 0.5365423380826018
H -1.8872200373341532 -2.627081583938314 -1.13523062984808
H -5.243963245114364 -2.6755648466709014 -1.432030262815142
H -5.869980896117898 2.377543984804759 -3.553872716591942
H -4.470029784255591 4.505633034600365 -3.042179315891032
H -0.724498441837003 3.516040161147581 0.5151029957244454
H -2.36606297486172 3.611535249920016 1.231753585327443
H -2.557057148338387 5.019641271576727 -0.6980317071128879
H -1.508842023783974 3.9431691926786603 -1.7081011443973386
H 4.20497423660617 -2.13885152112358 -1.1977246163664714
H 1.3139853068842509 -2.9736054493767576 -2.320378278921247
H 0.18584151729823872 -1.7238753514722713 -1.797164299632795
H 2.8367337517771887 -1.2381780777858473 -3.2565282528791957
H 1.1724203048672597 -1.0606275595963113 -3.918446041547091
H 1.3138098424825626 1.1293942908346493 -3.0657454332124137
H 4.806311071257038 -1.4391321711416456 3.4978458210896815
H 3.3528880343104093 -0.4623325705318803 3.905793239131701
H 5.989557560840959 0.49776958321200876 2.6413364075612744
H 5.170329060978363 1.1072473136401315 4.135004499392628
H 5.479631389804818 3.5945577659854995 2.3724200659638006
H 4.199266538454191 4.2694063913627245 0.23513150962673454
