50
148110
C 5.033901511102643 1.1175193182096814 0.9953774732600428
C 4.780858704243672 0.3485548651581486 -0.3078694666409129
C 5.04210343579467 1.2356636244227661 -1.531317382545015
C 3.3723088691918233 -0.23261821123467574 -0.34267117736137637
C 2.261530130467493 0.6188052122962678 -0.28067449824547513
C 0.9450333266781681 0.1289379420238456 -0.30558950455945055
C 0.7314537047595014 -1.2873195727110265 -0.33009722683350257
C 1.8585088065985587 -2.1391681277370407 -0.4892023498847207
O 1.7184247296304456 -3.517876599027092 -0.6885760437445088
C 3.162556150697582 -1.6156814990702772 -0.4679250895087118
O 4.261245612104572 -2.4724805167483095 -0.5815030947427574
C -0.6490862249272196 -1.936013606343091 -0.26536281808944245
C -1.7117167476793154 -1.0726471450121924 0.35864589748950476
C -1.8108663759304666 -1.012397894055893 1.7057419964029485
C -2.7801698357812223 -0.11709942915146834 2.4333778973353417
C -3.326910705164619 1.024096611960101 1.5649864609450663
C -3.6854467983869186 0.5568437028434272 0.13532670014766848
C -4.24584862302584 1.7617524188856097 -0.658651271480711
C -4.81862330051589 -0.5028237535168015 0.1985331843346832
C -2.422070423685903 -0.0859699567003117 -0.5512818398741045
C -1.3630939164463567 0.8881106219982439 -1.1505958934099751
C -0.163235633935817 1.1748742361873001 -0.22567974034324384
H 6.096959306570851 1.436180202524755 1.0475727090753189
H 4.394203371456804 2.0225938977723477 1.0622330102696944
H 4.82485445513329 0.4638541303490706 1.8691491151751187
H 5.535610787228602 -0.4658835035324177 -0.34020898666559884
H 6.100875428687623 1.57222934107467 -1.5377765272649668
H 4.388095059833219 2.133151927511883 -1.5250671441448933
H 4.855107386599053 0.6613063371546414 -2.4638387937243516
H 2.426940669447536 1.686647268427348 -0.2107511164456434
H 0.839709373313841 -3.9792871901335993 -0.881162596809602
H 4.166808294644093 -3.4768092691112256 -0.670825519994313
H -0.6039153974842462 -2.8752494010574474 0.3268545332067458
H -0.9551291578962097 -2.216728569440683 -1.296033235279921
H -1.211573394351426 -1.6843701214191409 2.314057604192928
H -2.2705844168669236 0.3175651253615481 3.319593839914933
H -3.62112317249172 -0.7383002157778517 2.808285472020492
H -4.223695786251379 1.4529729890351435 2.0647186386619847
H -2.5733346682652236 1.8382980056515332 1.5176175503234468
H -3.614016571108883 2.6663265993978067 -0.535934441106562
H -4.326213976167154 1.5149767733396373 -1.7392603139894176
H -5.257884328321459 2.038942029003941 -0.2910216510484437
H -4.474530423213184 -1.4480842194620196 0.6675079791132853
H -5.684120669953949 -0.12296455934253578 0.7835462123039508
H -5.176848497128212 -0.7517881737740922 -0.8239692543161041
H -2.807590816947911 -0.6671437912530499 -1.4200194583339962
H -1.8107478997697648 1.8478888723540823 -1.4649144683752218
H -0.9700718025966752 0.4494660637661629 -2.0953146304875703
H -0.47587505518026124 1.2937947506163543 0.8300002989308395
H 0.2372355052901064 2.1673524582859285 -0.530031037853481
