60
149522
C -8.003780064307291 0.5869829708373359 0.044085101338244864
C -6.6741687105280505 0.281447100239134 0.7134375553965456
O -5.808531504462531 -0.34513707121552567 -0.2288928923249162
C -4.411606782768749 -0.4663399008372494 -0.11012793764610201
C -3.7397201024404283 -0.4142701550397811 1.1283352220777534
O -4.482544232228791 -0.30549382780364187 2.3140821006113392
C -3.926468415500872 -0.21739318920497808 3.6259062091730767
C -2.336254483180652 -0.49222268280198617 1.1539558085338035
C -1.5812846005580803 -0.586510537515174 -0.02827761802281565
C -2.264180989262621 -0.7227195440005283 -1.2563188662832765
C -3.673881791325212 -0.653997869312865 -1.291536069077234
O -4.341671511177555 -0.758616547381828 -2.5138101673337006
C -1.4708968348445055 -0.9526981772294132 -2.4895832679538303
O -2.02170743510102 -1.2971644439983925 -3.5658587515540217
N -0.05189781369117143 -0.8199997838606091 -2.449574654771341
C 0.5960470748058075 -0.19436028187697194 -1.2957624021343799
C 2.1319919049311253 -0.45041611475753146 -1.3268972768976732
O 2.764251056770105 0.5997033389435117 -2.06640932989176
C 3.1244198817157836 0.5086292721338027 -3.415006103448884
C 3.717969446884782 1.6955600550161058 -4.091296569906709
O 2.938408441389726 -0.5533232928958098 -4.068666285413358
C 2.7632009034810507 -0.5198329791373832 0.08975572377575099
O 4.158985595820506 -0.21600067738115786 0.03238476861847716
C 5.1128328887891765 -1.0582216317218822 -0.549141997715504
C 6.535843248225482 -0.6199151628221667 -0.6052541272445489
O 4.77721696588482 -2.159457246437765 -1.061969582002387
C 2.0550413826730773 0.45800681512463143 1.0470156089248683
O 2.6968662377983947 0.4591758449298903 2.326414829333054
C 3.8157055768669728 1.242071693626231 2.6376595464215145
C 4.496333954872618 1.0576942185559892 3.9491872258855794
O 4.271921544772986 2.0780314078162374 1.8127422585839454
C 0.5719388904000134 0.06547907683825369 1.2346322116789825
C -0.05044765935890323 -0.6945857155828775 0.022134382869901215
H -7.840130425289872 1.1950203753448871 -0.872783591883119
H -8.514091899284642 -0.3642139337127992 -0.23389971361876738
H -8.654645699039932 1.158192279474809 0.7432112268862076
H -6.22622567589237 1.235526684505551 1.067161496354787
H -6.849514779961811 -0.3978794053368022 1.574562615519304
H -3.3603995108634335 -1.1452649360115055 3.8640722778659002
H -3.263439405670939 0.6734708931975949 3.700900339983712
H -4.749391976245977 -0.10790222542645692 4.363936449931916
H -1.8302965006749443 -0.4834028985132905 2.104106904203659
H -5.351004645463593 -0.7244174579351844 -2.592990880275872
H 0.5030179838295074 -1.1024348334141882 -3.2893055304620935
H 0.4153680324738276 0.9051172147032653 -1.3591267126000772
H 2.33366363948516 -1.4360495406788747 -1.8065882109998228
H 2.933773478762124 2.216044567677115 -4.675245469874949
H 4.132439890027984 2.394309503284227 -3.3367603935165393
H 4.535785850942651 1.3769923322242592 -4.7699093053047585
H 2.642238063731172 -1.5500148421310544 0.5010679891367369
H 6.803928512025659 -0.0990253824857702 0.3415801080182549
H 6.6721129477222885 0.076887631919978 -1.4599664112982245
H 7.206195746090679 -1.4988717030757839 -0.7326260891044517
H 2.088117574332642 1.4837589034034144 0.6094447134125311
H 5.430716932193037 0.48182529561120857 3.8003582696441
H 4.740569812062893 2.042460562205246 4.39248890358292
H 3.835732260289545 0.5012824336539518 4.648375075654336
H -0.00040951383313658573 0.9993932161079201 1.4373870852394133
H 0.4850465568378226 -0.5869032261263439 2.132777740044786
H 0.19091068606766898 -1.7780064697109799 0.13042645985971563
