99
151743
C 9.134723799032116 -2.91059438421025 -0.4140444079071095
C 7.962098141553354 -2.44588786908434 0.46020357428127984
C 7.256371894923226 -1.1292817825845916 -0.03398175577960664
C 8.307640504539076 0.022779589184263285 -0.005722438198970753
C 9.00269699133421 0.30419404603954836 1.1978500018511118
C 9.951376176461032 1.326648796100678 1.2655530232654977
C 10.21851690013297 2.1119230616186435 0.1478450893398238
C 9.528088622858345 1.8872597098027344 -1.042877033822948
O 9.798247400180028 2.6884949915022873 -2.151533329787304
C 8.573186730488267 0.8639168955392282 -1.117898592924639
C 6.684589685467708 -1.3362344421221104 -1.4936104963575432
C 5.8455847963210035 -2.6072814253265837 -1.7743707343514898
C 4.408735319806168 -2.5521051325776387 -1.2515314079292432
C 4.340244348322274 -2.249434572346407 0.23774297129980862
N 4.741342862927737 -0.8421234587156684 0.4556595562027708
C 3.7604942744832313 -0.11493723288818287 1.295809516605028
C 2.565380438052269 0.32708213112988554 0.43997739246497575
C 1.5200379499847465 1.0742440296757754 1.2780518968154921
C 0.3311917600995616 1.500089388203493 0.40519936156529185
C -0.6909812057222898 2.3680307303468044 1.1590557087597408
C -1.4248598778457264 1.6592734701559058 2.316649003857525
C -2.168338880102537 0.36161027884996044 1.936385880648653
C -3.1461416911292144 0.48905599606236255 0.7549325463042108
C -4.275844459683247 1.5019447491925482 1.0040664376671924
N -5.212636849505424 1.5106859309587606 -0.1432614812629704
C -4.72507320709356 2.4008522027939296 -1.220805710472881
C -5.413792083762662 2.135878564064988 -2.5781500435339697
C -6.299251234207655 0.8801985728967557 -2.6250170021561368
C -7.651952421170938 1.0670647789891197 -1.896775596878631
C -7.622336963151468 0.8478338873941047 -0.34385588787144106
C -9.02822273735978 1.2110292656237454 0.23865359878218834
C -10.160175605434961 0.24094889328326327 -0.12968779692506935
C -7.258820687584009 -0.6007328482839986 0.08119113495256841
C -6.951220951272193 -0.8790748223725302 1.4341293256493477
C -6.600190179413728 -2.167545858004727 1.8436994453690223
C -6.590208556838798 -3.215954713246236 0.9268346594312177
C -6.9658400063279275 -2.9924894837376574 -0.39552863916687137
O -6.993639289449197 -4.0609639328609015 -1.2919010349406441
C -7.309699048159076 -1.697646785248337 -0.8145199526723312
C -6.599971283217957 1.86935293549605 0.24942529484090956
C 6.115528565959257 -0.7397754824577911 0.9952664293220893
H 9.609535684313608 -3.799744977392643 0.053446863597347204
H 8.78898924168931 -3.205214556254488 -1.425732796596837
H 9.904801411544092 -2.1158537257944285 -0.5037553393606539
H 8.348107459762064 -2.322452637181593 1.4927540268524555
H 7.237628855632615 -3.2763333078501016 0.552176689287361
H 8.797499477159073 -0.2533879754148489 2.101725807482528
H 10.474231906566477 1.516624974185736 2.195306842647866
H 10.955431280077235 2.899706338596724 0.20804213053217374
H 9.328288999589548 2.5419869788818397 -3.0386677572781973
H 8.050521897437344 0.7521821561637577 -2.055481649951311
H 6.088921429987142 -0.44502530459288725 -1.7965576068441012
H 7.537892064471499 -1.3964184203034622 -2.204043695822689
H 5.776559367775853 -2.725265437260565 -2.880004228796091
H 6.344245275864785 -3.5286272053790535 -1.4150400912362049
H 3.83276733541776 -1.7828376225529738 -1.8120974787850703
H 3.9241992984213536 -3.5369428744658835 -1.4427709683956333
H 4.96419989116662 -2.9698629547593107 0.8095313640098334
H 3.2932213555611876 -2.4453226241706707 0.5661256375628094
H 4.207121423645072 0.8086829949133514 1.7275457674415755
H 3.425201668003986 -0.7422965067195286 2.1530405612870194
H 2.0856965717523894 -0.5580953883226486 -0.029865197255377778
H 2.934021563102596 0.9926100685208269 -0.37247206099892555
H 1.1655184105535012 0.4022788261376232 2.0878713286675796
H 1.986491074550552 1.9734773646299766 1.7364460375041009
H -0.1644884422552373 0.6042395033377488 -0.02344243197237309
H 0.7118997841048158 2.0993364360331888 -0.45119657537706825
H -0.17192010595995671 3.264072768463054 1.5678103414665325
H -1.439907430313913 2.750143761629592 0.43194995112457535
H -0.7015079668189929 1.4282719805044854 3.1251588764575002
H -2.1491974217532377 2.3745326644958995 2.7604449302850242
H -2.7291925798428895 0.0036861295290342845 2.8274223194668227
H -1.4239873757519377 -0.4291073553465969 1.7017202473489577
H -2.5843428460859923 0.7350335805329475 -0.1667666182220873
H -3.608288826464233 -0.5078848952434893 0.5843317742278418
H -4.780733971304141 1.1759245824146645 1.93986942170728
H -3.870872045860976 2.5226862190369865 1.186230238715746
H -3.6293187515087895 2.2779033580750503 -1.3694263955514403
H -4.858261058565703 3.4706883317001345 -0.9394081625188491
H -4.6213519619535885 2.022089431799815 -3.3501834236334935
H -6.010473874063937 3.025795450834987 -2.8784484081186186
H -5.737482378401432 0.004354345736587373 -2.2362185546588553
H -6.517460779572614 0.664429882579465 -3.694229314547368
H -8.034443398320514 2.0889597884229683 -2.120038329901118
H -8.38946715411947 0.3927929913616869 -2.3725643487928427
H -9.318017846865292 2.2312177601562166 -0.09933566528734965
H -8.979426295850892 1.251960359706126 1.3496519947581036
H -10.28344649634021 0.1464299184438198 -1.2257287443939413
H -9.983314493411932 -0.7582847525705095 0.31574575516055176
H -11.113685687567639 0.6262148560234093 0.2867714406608834
H -6.981899106137586 -0.10397721242233957 2.184938505898373
H -6.341394368005071 -2.3518526721392705 2.8778300883965175
H -6.309527521754226 -4.209461561029957 1.2502781257147402
H -7.276968276765769 -3.9353142895098405 -2.2559695376642983
H -7.604942037758214 -1.575172352500447 -1.8443540257138455
H -6.718677310562947 1.9316572784694712 1.351220310452523
H -6.871399271783042 2.900853965402055 -0.07871429750386094
H 6.28092409881888 0.31250698353161305 1.3191071481264096
H 6.194600310256797 -1.3269240899101913 1.9389106720015226
