66
151868
C -5.457049564643568 0.47266211414176074 4.894298792056556
C -4.64846288796638 1.7443314144478417 4.613973960488976
C -5.376547433516608 2.9623782709616577 5.180402479308749
O -4.483416932573928 1.9295719598506462 3.2062642751717343
C -3.6671449187813763 1.180460781538965 2.3382354808471453
C -3.8177481946405867 1.4129999295271451 0.9650729605533733
C -3.048350246117178 0.7165891281982223 0.030651726350999695
C -2.1207068013084758 -0.2418661666212792 0.45461446328013994
C -1.2692880295212101 -0.9228226610592789 -0.535465106708713
N -0.5766075583293896 -0.24660201332438333 -1.483721842384616
N 0.23922694087570145 -1.0905066763881994 -2.1070140454381483
C 1.117473394346302 -0.6553587985885674 -3.20587806542148
C 1.84559380877119 -1.7902990228774862 -3.9359660811843087
C 2.083336855848538 0.4414581445519596 -2.7755983279579177
N 2.2029104180597314 1.5014701395950816 -3.619229227740064
C 3.03525494143572 2.536738666791484 -3.3646409347680217
C 3.120656620774957 3.604482782458783 -4.265823979877335
C 3.9762530709418655 4.676984102977939 -4.00021480192265
C 4.748042650777678 4.685590813709902 -2.835283897214386
C 4.669564001871056 3.6203678998149247 -1.9323953296695993
C 3.8112481793016046 2.534991471476697 -2.1943188854555653
C 3.6998944877030393 1.4364244603089962 -1.327466395976272
O 4.3912339285436195 1.4058376103727426 -0.26922792315448163
N 2.849826740086559 0.39847491904915283 -1.6258089386974952
C 2.791076008976244 -0.7081014350188013 -0.7052299309993039
C 3.6214866530686733 -1.8241616990935183 -0.8870877909565682
C 3.5944618570612565 -2.877638689503849 0.031664617255565665
C 2.76533756093791 -2.80658437940898 1.1550911455232264
C 1.9777566848481738 -1.6723689952714629 1.3714867245763671
C 2.000555626806967 -0.6188458487906162 0.4524062347543386
C 0.05570930501745787 -2.313826794718167 -1.562317465192042
N 0.7146658626785565 -3.4596410767378827 -1.8621725979270674
C 0.4029904056444721 -4.5927433462852765 -1.169241629839165
N -0.5732097962751547 -4.572383657376704 -0.2100632751265749
C -1.2474807203140894 -3.4267251652104758 0.10263187690003828
N -2.3354381268118702 -3.4777247437037597 1.0266735284258477
C -0.8888741210549512 -2.2582949147096887 -0.5790329928222484
C -1.9373227257859085 -0.4590814206882973 1.8278560378411821
C -2.7060700466949843 0.23472287982230475 2.768705755756719
F -2.472934358331755 -0.01017071907805316 4.080084361096775
H -5.573045231787972 0.325743714290268 5.989043760175518
H -6.463608407846437 0.5437940498283282 4.428970064692976
H -4.945535529295947 -0.4187934673928973 4.477281968671747
H -3.661773903228833 1.6965971265081878 5.118420958962056
H -6.374793551651055 3.0761339976858153 4.704451322851044
H -4.781518587238399 3.8792898577638093 4.982115648749737
H -5.506447817181321 2.858637013619481 6.2790248822661905
H -4.538979304563129 2.143192662664404 0.6191943168477054
H -3.1810769676316073 0.9212024824013292 -1.0252422601007325
H 0.4441152568749922 -0.20957897054972557 -3.9723605251351075
H 2.5534488805204165 -2.320678120011121 -3.274743973435362
H 2.4194474676553352 -1.3780014400427152 -4.793168624940942
H 1.1089912175428216 -2.5157105115601737 -4.342315564210638
H 2.5248074583032825 3.6060207037786 -5.170175585056784
H 4.04023793212274 5.501657738153531 -4.697420584161081
H 5.4090202559626395 5.518225168079659 -2.632117699644951
H 5.277995884178438 3.648035492833733 -1.0367244182823485
H 4.2893032904224375 -1.8727807302329365 -1.737676355111857
H 4.220640799670606 -3.7457451246551954 -0.1227369230261077
H 2.7450202392514473 -3.6232151218834674 1.864906961679904
H 1.3492871667964355 -1.6101367636531008 2.2504753811592244
H 1.3930434731598376 0.2591330680795239 0.6298996877473712
H 0.9197696575670037 -5.516314325477114 -1.3901417581246784
H -3.0588854709405133 -2.7286871696289188 1.059032415947446
H -2.5116414562457883 -4.350108912434115 1.5729704139635763
H -1.1857262941273148 -1.1587016833066521 2.1721215337623883
