32
152536
C 3.4469656855501123 -2.0154212913673786 2.004370810687311
C 2.571557475883801 -0.8813085579399104 1.560643255888644
C 2.6550764577278154 -0.39597929957316086 0.2466306339687882
C 1.8112350668880208 0.6339055764668896 -0.17931908084837758
C 0.8673083290403956 1.1816733441705551 0.7003318300759269
S -0.23354318303118812 2.447183768856423 0.15818325242633158
O 0.3235120025032107 3.141785878732043 -1.054193873742169
O -0.3783204801830092 3.4632023146034028 1.2557773144452196
O -1.7639245738109177 1.802769113545692 -0.1972091980249227
C -1.6693723505329834 0.8293014366037339 -1.2210630734683183
C -2.7246482220040096 1.1550979629997804 -2.284196078575403
C -1.8711432190561084 -0.5775866834492615 -0.6013457959674736
C -1.5623594668058567 -1.7007730084100359 -1.5944632644949528
O -3.1815337277992217 -0.7336050434790148 -0.11983016398564877
C 0.7683913152443234 0.6841684717147618 2.0061650752507303
C 1.6122998887797042 -0.34518123020405644 2.4333112101406136
H 4.422461841081236 -1.9880953738402536 1.4736118417484454
H 2.9418630634224594 -2.9790932838399597 1.784678587474146
H 3.6478528918599404 -1.9517273936236041 3.0950734684530787
H 3.371048094222965 -0.8165693608468836 -0.4486881487090814
H 1.8871182191047886 0.9933296380800948 -1.1973687751415663
H -0.6865407592545418 0.8422000194635446 -1.7477779093089567
H -2.6491137520805 0.460400719838183 -3.1458850608292517
H -2.5589397093851947 2.185382429510289 -2.6648453951990985
H -3.7484523113038817 1.102528213876388 -1.8570883948330603
H -1.153831438972823 -0.6974957650535705 0.24229641954878048
H -1.6015739148007606 -2.6797832036375446 -1.0712825044796828
H -2.305386791269813 -1.72054387220888 -2.4183832516479082
H -0.543623524151692 -1.5744306755669295 -2.0192043252778986
H -3.2388999871507447 -0.2232085573565857 0.7298408198768046
H 0.02930596782209553 1.0840611881454674 2.6887734641505263
H 1.5152111124623728 -0.7261874762102192 3.442456310398419
