22
152678
C 2.5767532733751297 -0.7442179217156705 0.38467536944945074
C 1.2393876472125063 -0.6614558262600965 -0.3526077962163291
C 0.37729831861498375 0.5421962923423584 0.10377419680301815
C -0.2465880675097222 0.32072937328548734 1.4960781943215764
O -1.2728207416506923 -0.6696198751188667 1.4602770353706358
C -2.140028115998696 -0.8223428189826213 0.3739547257777401
O -3.187128324418363 -1.5067413708321127 0.5140684994915071
C -1.7812723674417574 -0.29033023007433006 -0.9853292098177121
C -0.7513959431302293 0.8498705578654028 -0.9133103510246557
O -1.410656614770056 2.040423280824667 -0.5610712499732315
H 3.1898222394921842 -1.5587045897960772 -0.055636647177496376
H 3.1367264834915214 0.20965549853338414 0.2839472450007698
H 2.4252601705571606 -0.9723705312265644 1.4592789005517683
H 1.46277259569016 -0.5637357424687728 -1.4374283364448974
H 0.6878518276089678 -1.6155679330047894 -0.20867493546344257
H 1.0357830824682899 1.4380818564241233 0.15685377725374228
H 0.519398673811709 0.027809051424242195 2.24169757057388
H -0.690480719903132 1.275153119213284 1.8525913349300354
H -2.6984259695194797 0.06615690012311823 -1.5029633733344656
H -1.3631329621962824 -1.125984387266356 -1.5865057198512273
H -0.3096154099170254 0.9732605806369284 -1.9301997596957918
H -0.7995090758671781 2.7877347160732597 -0.7934694705248745
