28
153900
C 4.269017611607011 -0.0019844076212810566 0.2780466532183565
C 2.771210818083918 0.24162205154268213 0.436958695119047
C 2.0795967706025436 0.3439176912605639 -0.9298538992215665
C 0.5813537602608359 0.6329477002810578 -0.7966546534495103
S -0.30784441107020516 -0.8035175961948708 -0.1361737132764493
O -0.4239252865757133 -1.7374802795266118 -1.3347722782000904
C -2.0247515187279097 -0.3010213288022886 0.23279840549224806
C -2.024833341203354 0.6309343033254796 1.455683758460484
C -2.8435106087209925 -1.5613478552259352 0.5597856078939757
C -2.652230979162381 0.4203450167665628 -0.9733433087315503
H 4.739784808479135 0.836477171596126 -0.2782072140842488
H 4.449194922214666 -0.9522369405681511 -0.2684487791456732
H 4.74247362512208 -0.07323605661380364 1.279924237329708
H 2.335636319867058 -0.5959429118479836 1.0229411507492057
H 2.619375983429291 1.1846979921504652 1.0059047270160015
H 2.2276799243933474 -0.5973872604283307 -1.503191852387794
H 2.5440851598325547 1.1720728212277414 -1.5087346671929192
H 0.1743746354092877 0.8752690893091112 -1.801112195833924
H 0.4254718230026573 1.5131520645083578 -0.13942386994143852
H -1.5409265012277802 0.1331452983542515 2.323457276247881
H -3.0644009174264686 0.9017579887228936 1.7410048409787036
H -1.4741047556087623 1.5699184694608221 1.2402777270147975
H -2.875757082539538 -2.2462752329072804 -0.3144384437283223
H -3.888280075981456 -1.293417876311606 0.8285506011878049
H -2.3910089659987346 -2.107914626493989 1.415175300364015
H -2.1216643008405187 1.3716863575848162 -1.1870614446028331
H -2.6087773252594215 -0.2204629990646629 -1.879594329495455
H -3.717240091961148 0.6642813555158629 -0.7694983317804536
