29
Properties=species:S:1:pos:R:3 000483=T pbc="F F F"
C       -2.07340739       1.51225701       0.84161742
C       -0.88905359       1.23826391       0.26286637
C        0.23046116       2.24582952       0.41383573
C        1.58406201       1.65242195       0.00531772
C        1.74307177       0.24944759       0.60393953
C        0.68138491      -0.77645116       0.06189356
C        0.29536993      -1.72337228       1.22326204
C        1.35138926      -1.62030186      -1.05030068
C       -0.59238572      -0.04301422      -0.52454643
C       -1.81750217      -0.97252516      -0.74553197
O       -2.80889299      -0.32095592      -1.49541021
H       -2.21548882       2.44014473       1.38799486
H       -2.91886703       0.83812543       0.80108958
H        0.29676654       2.56438207       1.47811849
H        0.01288523       3.14277285      -0.20482024
H        2.39929801       2.31030980       0.37700956
H        1.66767253       1.60498399      -1.10230873
H        1.66016657       0.35342777       1.70979680
H        2.78115297      -0.10320269       0.41574496
H        1.20611570      -2.14423238       1.70232391
H       -0.28352004      -1.17336455       1.99617790
H       -0.31448638      -2.57972301       0.86546238
H        1.67867673      -0.97052286      -1.89023763
H        0.66383783      -2.39159576      -1.45221576
H        2.24581175      -2.15028317      -0.65656725
H       -0.31901750       0.31310840      -1.54345035
H       -2.25241256      -1.28218785       0.22752828
H       -1.51915330      -1.90455922      -1.27169420
H       -2.49393541      -0.30918292      -2.43689563
