64
Properties=species:S:1:pos:R:3 000946=T pbc="F F F"
C        2.73315708      -1.05843908      -2.60025757
C        1.71690101      -0.09295028      -2.03147395
C        1.14735887       0.91779751      -2.85531943
C        1.52833141       1.09954968      -4.30634257
O        0.82448091       0.19110475      -5.10893358
C        0.14608867       1.72428267      -2.30829299
C       -0.26075588       1.60538401      -1.01108960
C        0.33649860       0.68373327      -0.13959145
C       -0.11205209       0.58290923       1.29518898
C        1.33377671      -0.17910720      -0.65870837
N        1.93668678      -1.15434370       0.20590904
C        3.31235150      -1.07360291       0.60077205
O        4.02397821      -0.11456403       0.19806657
N        3.86224041      -2.08449856       1.46349197
C        5.25230266      -2.11438162       1.96007639
C        5.43690065      -3.35474652       2.85829156
C        6.23895120      -2.21532785       0.78097541
C        5.54798880      -0.85460816       2.79798980
C       -1.36722492       2.58130104      -0.74573398
C       -2.65046055       1.87673844      -0.35210193
C       -3.18996138       0.85417883      -1.15285530
C       -4.36283290       0.19859216      -0.77148510
C       -5.02438309       0.55348529       0.41636857
C       -6.28985050      -0.17645283       0.82638212
C       -6.08858947      -0.92728609       2.14726089
C       -7.48005950       0.78502705       0.91409348
C       -4.48783124       1.58230330       1.21303273
C       -3.31541575       2.23804894       0.82983311
C       -1.50033340       3.32865557      -2.10064644
O       -0.55768478       2.70996731      -2.97058192
H        2.46640632      -1.35325854      -3.63677752
H        2.77537291      -2.00171806      -2.01872053
H        3.73760023      -0.58490028      -2.60253957
H        1.32969046       2.14236056      -4.64306390
H        2.61754817       0.93716186      -4.44209729
H       -0.10891153       0.52728838      -5.16665473
H       -0.92040433      -0.17345164       1.37700765
H        0.73042046       0.29396657       1.95813624
H       -0.48859520       1.55802753       1.66521886
H        1.31472745      -1.84372845       0.68703241
H        3.21376366      -2.85303831       1.74922507
H        4.73768967      -3.31574834       3.72159869
H        5.22857463      -4.28379774       2.28381123
H        6.47547319      -3.41204098       3.25143368
H        5.98914414      -3.09073303       0.14436878
H        6.21309390      -1.30502313       0.14854304
H        7.27968197      -2.33460419       1.15257399
H        5.53443907       0.06259519       2.17429512
H        4.79043259      -0.74102099       3.60346712
H        6.55363719      -0.92439218       3.26725636
H       -1.03875050       3.29691111       0.04007200
H       -2.69821262       0.56070247      -2.07145506
H       -4.75107932      -0.58947383      -1.40372660
H       -6.54367104      -0.93749685       0.05577598
H       -5.90533418      -0.22181694       2.98433710
H       -5.22387179      -1.61884912       2.06360107
H       -6.99136190      -1.52972454       2.38538595
H       -8.41344008       0.21769948       1.11575124
H       -7.60297064       1.32636112      -0.04801475
H       -7.33749868       1.52680657       1.72805446
H       -4.97502561       1.87718997       2.13461908
H       -2.92081738       3.02187885       1.46457741
H       -2.51914878       3.25129119      -2.53893553
H       -1.23916045       4.40182601      -1.97847553
