56
Properties=species:S:1:pos:R:3 001754=T pbc="F F F"
C        1.75899849      -3.17367620       2.36162610
O        2.09300643      -3.67069853       1.07027303
C        2.70620713      -2.86101778       0.11194294
C        4.04668574      -3.12308237      -0.21224910
O        4.68250348      -4.23656981       0.33461338
C        4.74721205      -2.25849177      -1.06166565
C        4.13198741      -1.10603413      -1.54723875
C        2.79827006      -0.84208597      -1.23286928
C        2.03571918      -1.76494378      -0.49319566
C        0.55445437      -1.52481684      -0.42989602
C       -0.34930689      -2.55903958      -0.12569404
C       -1.70821537      -2.29700044       0.00161684
C       -2.21110992      -1.03388852      -0.30416012
C       -1.36950359      -0.04146894      -0.83933841
C        0.04266238      -0.24832093      -0.80121595
C        1.05880736       0.87680813      -0.97100023
C        1.45842388       1.45994296       0.40869887
C        2.58479821       2.50415095       0.30868102
C        2.18196128       3.55967655       1.27383155
C        0.94960029       3.38475299       1.71866482
C        0.30530386       2.18431495       1.12663759
O        2.21928734       0.36437212      -1.63006492
C       -2.05340801       1.15331167      -1.43571309
C       -1.54038877       1.82830485      -2.68097304
C       -3.28616685       1.49152579      -1.01403437
C       -4.03158229       0.67121837       0.01776494
C       -5.54130752       0.74314458      -0.26547239
C       -3.73852825       1.22477513       1.42045857
N       -3.59073041      -0.72823909      -0.05551077
H        1.08787706      -2.29325295       2.28383577
H        1.24295296      -3.96977670       2.93606717
H        2.68416241      -2.88139107       2.90157015
H        5.65128741      -4.44949695       0.12722744
H        5.78308923      -2.45505484      -1.30718073
H        4.69738216      -0.40501932      -2.14787785
H       -0.02027664      -3.57308047       0.03669502
H       -2.37361422      -3.08357643       0.33493557
H        0.68832667       1.70964986      -1.58193886
H        1.81469569       0.63775413       1.07115499
H        2.65234028       2.95193786      -0.70664735
H        3.56504480       2.06616638       0.59521846
H        2.80202507       4.40771600       1.54520993
H        0.45207547       4.07498287       2.39197375
H       -0.13709748       1.54569229       1.92069595
H       -0.48419746       2.52044154       0.42253387
H       -2.36592382       1.97868501      -3.41009476
H       -0.78372695       1.19822786      -3.19373231
H       -1.11652180       2.82269536      -2.42755647
H       -3.79345424       2.33613898      -1.46936929
H       -5.90273633       1.79334158      -0.21676693
H       -5.76193273       0.33871304      -1.27699817
H       -6.10670011       0.14431587       0.48072217
H       -2.65131485       1.17181201       1.64126839
H       -4.27704499       0.63121155       2.19012358
H       -4.06166381       2.28544066       1.49871743
H       -4.22069486      -1.48119848       0.30569521
