30
Properties=species:S:1:pos:R:3 001362=T pbc="F F F"
C       -4.72471813       0.71547212      -0.42467302
C       -3.38552220      -0.01491642      -0.46915219
C       -2.34085228       0.69267265       0.40654973
C       -1.01929030      -0.08701236       0.50124442
C       -0.22271903      -0.05925064      -0.81749369
C        1.17236965      -0.71673456      -0.72869637
O        1.07079131      -2.07004010      -0.35597750
C        2.15041843       0.06074386       0.18221314
C        3.58428555      -0.46928607       0.04738665
C        4.54684761       0.31106894       0.93804927
H       -5.12040073       0.73453734       0.61317503
H       -5.45680700       0.18970651      -1.07326175
H       -4.60808271       1.75727699      -0.79236276
H       -3.04078608      -0.04760545      -1.52404993
H       -3.53406856      -1.05724659      -0.11216847
H       -2.74960091       0.79892971       1.43560131
H       -2.14827591       1.71565700       0.01480358
H       -0.41641660       0.38088351       1.30681613
H       -1.23220124      -1.13579397       0.80043524
H       -0.10297017       0.99335478      -1.15608524
H       -0.79818928      -0.59597565      -1.60120375
H        1.59052813      -0.69060719      -1.75921239
H        0.89932491      -2.10780703       0.62057171
H        2.13633998       1.13618910      -0.10156348
H        1.83502103      -0.02059446       1.24439407
H        3.92053685      -0.37926131      -1.00852705
H        3.61857002      -1.54185927       0.33739694
H        4.55278920       1.38459272       0.65243923
H        4.24900584       0.21640700       2.00407370
H        5.57407264      -0.09350116       0.81927747
