47
Properties=species:S:1:pos:R:3 002881=T pbc="F F F"
C       -4.77860752       1.04925053       0.28279926
C       -3.30126627       0.65509207       0.39617084
C       -3.15928818      -0.78042016       0.92119743
C       -1.67858079      -1.13734248       1.20740486
C       -1.21586585      -0.58946789       2.56705313
C       -0.28910062       0.51259724       2.22909415
O        0.13888501       1.28925975       3.06922176
C        0.05267168       0.61847303       0.78223357
C        1.56847512       0.46267574       0.54011594
C        2.13300787       1.59757520      -0.33204407
C        3.58217959       1.27745491      -0.71994796
N        3.73038021      -0.01797005      -1.43485690
C        4.90584603      -0.76425207      -0.95784337
C        2.51561765      -0.86597518      -1.45565650
C        1.80290489      -0.92391072      -0.08255354
C        0.43928281      -1.62199600      -0.16672523
C       -0.67263011      -0.57861555       0.13183395
C       -1.41621959      -0.17670504      -1.18453322
O       -0.51579270       0.35995273      -2.11768923
C       -2.57759067       0.82471640      -0.95961057
H       -4.86687934       2.09007879      -0.09557708
H       -5.31513887       0.36672805      -0.41098017
H       -5.26537548       1.00057551       1.28023427
H       -2.83599500       1.34501031       1.13461685
H       -3.77150130      -0.92185953       1.83916263
H       -3.56459407      -1.48696792       0.16268411
H       -1.64663501      -2.24902525       1.25108457
H       -0.66138131      -1.36808956       3.13402118
H       -2.05269744      -0.20881011       3.19180364
H       -0.32361467       1.59791325       0.41484405
H        2.12003998       0.50217023       1.50876403
H        2.10643161       2.55226072       0.23732712
H        1.52555440       1.73623935      -1.25185728
H        4.19752562       1.30851532       0.20915701
H        3.95700462       2.08716652      -1.38120347
H        5.08018244      -1.65772479      -1.59479252
H        4.77354668      -1.08676155       0.09775409
H        5.81482838      -0.12876959      -1.03022017
H        2.76055500      -1.89990194      -1.78747292
H        1.82945995      -0.46364854      -2.22768893
H        2.45509245      -1.51238885       0.60224151
H        0.44122789      -2.43758047       0.58965664
H        0.28603253      -2.12307636      -1.14838855
H       -1.85654694      -1.11194042      -1.60672263
H       -0.95779015       0.31449912      -3.00565252
H       -3.29560285       0.69706369      -1.80026867
H       -2.19803771       1.86793155      -1.02819110
