30
Properties=species:S:1:pos:R:3 003070=T pbc="F F F"
C        4.81354584       2.48830984      -0.53803560
C        3.83353363       1.35642102      -0.44815917
C        3.93069114       0.41738718       0.59087295
C        3.03959879      -0.65843008       0.65382649
C        2.05380621      -0.81285341      -0.32703381
S        0.92327368      -2.18116583      -0.23409362
O        1.05697123      -2.89491100      -1.57230456
N       -0.65868866      -1.43465403      -0.29780811
C       -1.52592474      -1.62012562       0.64522876
C       -2.85749187      -0.98478759       0.59131331
C       -3.23069323      -0.15101655      -0.48013724
C       -4.49826457       0.43930761      -0.50572499
C       -5.40248690       0.20458886       0.53357130
F       -6.63071442       0.77810372       0.50644184
C       -5.04008194      -0.62136823       1.60093752
C       -3.77369160      -1.21390021       1.63109434
C        1.96395072       0.11208656      -1.37512330
C        2.85396335       1.18851216      -1.43958032
H        5.69629537       2.16608305      -1.12875589
H        5.14851523       2.79785106       0.47489690
H        4.34998835       3.36968965      -1.03031580
H        4.69459759       0.51862307       1.35193111
H        3.11916838      -1.37223409       1.46401701
H       -1.27259367      -2.24954998       1.49091143
H       -2.54600179       0.04528645      -1.29571624
H       -4.77848897       1.07927364      -1.33255326
H       -5.73998346      -0.80341547       2.40635271
H       -3.50922514      -1.85120662       2.46618358
H        1.20777490      -0.00253439      -2.14146159
H        2.77865655       1.89062921      -2.26077575
