67
Properties=species:S:1:pos:R:3 003411=T pbc="F F F"
C        4.65113670       1.95645059       1.36127696
N        4.02467300       0.65410370       1.61557720
C        3.30223364       0.46249568       2.84886485
O        3.34213047       1.34920131       3.74564811
C        2.50672635      -0.77527198       3.10643994
N        1.65844071      -1.08281053       1.96583869
C        0.63176663      -2.12631828       1.75164440
O       -0.04356319      -2.87680838       2.50328200
C        0.78197534      -1.96969935       0.27500903
N       -0.49415833      -1.64235251      -0.40347069
C       -1.07645562      -2.62829015      -1.24918042
O       -0.41913994      -3.29713622      -2.08894700
O       -2.42986537      -2.78992651      -1.05773084
C       -2.83630495      -1.96938139       0.02620582
C       -4.20000538      -1.34895488      -0.19977512
C       -4.71202948      -1.15168911      -1.49644185
C       -5.94675845      -0.52202780      -1.67837228
C       -6.67661731      -0.07875219      -0.57333236
C       -6.17161958      -0.26084796       0.71641402
C       -4.93770749      -0.88926348       0.90380288
C       -1.65593798      -0.96427761       0.21204537
C       -1.93574789       0.37210798      -0.46427608
C       -2.45070447       1.43534065       0.30080669
C       -2.82013767       2.63695634      -0.31020722
C       -2.69426532       2.78750985      -1.69212509
C       -2.20286655       1.73514421      -2.46659354
C       -1.83150230       0.53136851      -1.86121535
C        1.73838884      -0.87810869       0.51979925
C        1.28752668       0.51894169       0.08523689
C        0.82747590       1.48259940       1.00791149
C        0.54767637       2.78752426       0.59168176
C        0.69857073       3.14442315      -0.74886007
C        1.12210159       2.19435293      -1.67934691
C        1.41004726       0.89008825      -1.26830492
C        3.18322248      -1.12954443       0.06901665
C        3.47307925      -1.96538925      -1.03403308
C        4.79059197      -2.20934422      -1.42120587
C        5.84226966      -1.59454866      -0.74964882
C        5.57875667      -0.69402816       0.28020159
C        4.25859718      -0.42559697       0.68224575
H        4.91272489       2.06630197       0.28690042
H        3.94768832       2.77719281       1.61759963
H        5.57282015       2.05492068       1.97248687
H        1.86703660      -0.64103322       4.00471775
H        3.19901531      -1.62371066       3.28717920
H        1.22064522      -2.91727845      -0.10081883
H       -2.88515302      -2.61714533       0.93114364
H       -4.15345238      -1.46959057      -2.36755826
H       -6.33433183      -0.37283238      -2.67754777
H       -7.63049419       0.41235900      -0.71643170
H       -6.73280058       0.08998919       1.57256251
H       -4.55158018      -1.00758807       1.90835794
H       -1.48827004      -0.78975576       1.29651354
H       -2.57574164       1.33108066       1.37103577
H       -3.20917887       3.45042802       0.28833544
H       -2.98115966       3.71830470      -2.16389873
H       -2.11354651       1.85007720      -3.53869249
H       -1.47421713      -0.27210952      -2.49001924
H        0.68749115       1.23805292       2.05105290
H        0.20387372       3.52083328       1.30945788
H        0.47407917       4.15382484      -1.06874942
H        1.22553109       2.46722895      -2.72162200
H        1.74421291       0.17107576      -2.00506032
H        2.68716236      -2.42138623      -1.61951639
H        4.99660177      -2.86951803      -2.25395012
H        6.86271109      -1.78685339      -1.05323022
H        6.40633214      -0.18110820       0.75387014
