39
Properties=species:S:1:pos:R:3 003674=T pbc="F F F"
C        3.72923967      -1.14287476       0.07572953
C        3.01912686       0.01012308       0.80289914
C        2.53047179       1.12013895      -0.16509706
C        0.99676685       1.26121583      -0.22689223
C        0.29226808      -0.12106731      -0.34791954
O        0.92300468      -0.77434364      -1.43220658
C       -1.27333096       0.04855838      -0.70010214
C       -2.02829571      -1.30843047      -0.56663155
C       -1.42950920       0.48351212      -2.18945077
C       -1.94725044       1.15746228       0.19500647
C       -3.48638506       1.20480126       0.19761960
O       -4.00377583       0.20501136       1.03169967
C        0.59871799      -0.94150382       0.98114799
O       -0.45383577      -0.84699345       1.90507775
C        1.89543919      -0.50631499       1.71888458
H        4.55558921      -0.74736149      -0.55250978
H        4.17108941      -1.84270730       0.81676546
H        3.03364506      -1.71539590      -0.56737693
H        3.78799127       0.46661599       1.46664404
H        2.91852910       0.94446279      -1.19283510
H        2.95070968       2.09771028       0.15886349
H        0.75841434       1.91487326      -1.08924542
H        0.65498201       1.78984704       0.68944449
H        0.60292439      -1.70994608      -1.48402720
H       -1.50918254      -2.12598484      -1.10396328
H       -2.16641826      -1.62117040       0.48469632
H       -3.04456744      -1.24450179      -1.01076569
H       -0.97940006      -0.26018973      -2.88019784
H       -0.96376985       1.46882467      -2.38826744
H       -2.49586654       0.56771560      -2.48152041
H       -1.59746584       2.15531590      -0.14965590
H       -1.61881934       1.08670985       1.24905943
H       -3.89843941       1.10315665      -0.82785425
H       -3.80542498       2.19649819       0.58979195
H       -4.99157723       0.28348020       0.97722047
H        0.72010646      -2.01539489       0.70507293
H       -0.35872082      -1.60530544       2.53981018
H        2.26841412      -1.34957490       2.34120768
H        1.64460514       0.31302750       2.42987795
