69
Properties=species:S:1:pos:R:3 004515=T pbc="F F F"
C       -6.30889896      -2.24193209      -3.13814617
C       -6.38123214      -1.00501748      -2.29520275
O       -7.43622299      -0.31273596      -2.30994366
C       -5.22529024      -0.55502445      -1.48588788
C       -5.38283224      -0.26901773      -0.11145804
O       -6.58517597      -0.53670026       0.55060043
C       -4.30811561       0.26884609       0.62041471
C       -4.45661292       0.58700221       2.08659603
C       -3.05706052       0.43223498       0.00573131
C       -2.86401508       0.06499197      -1.33902104
C       -3.96922999      -0.37724036      -2.10106618
O       -3.85459532      -0.62422424      -3.47350580
C       -1.48606582       0.18654122      -1.96037935
C       -0.33007749       0.32808332      -0.93481482
C       -0.74204959       1.30620359       0.18614537
O       -1.98970663       0.92933980       0.75948873
C        0.28828096       1.40618008       1.28724226
C        0.25461706       2.49016861       2.18629407
O       -0.68568518       3.50416608       1.96805156
C        1.16346826       2.54267526       3.27228516
C        1.05231838       3.63632992       4.31037376
C        2.18641771       1.56721640       3.36227475
O        3.20324401       1.65363622       4.31899445
C        2.21310389       0.48832494       2.46039022
C        3.26752929      -0.54780239       2.57738463
O        3.43204001      -1.12826318       3.68259612
C        4.14013970      -0.92865379       1.44646471
C        4.26950139      -0.17392127       0.34549655
C        5.18015322      -0.50786073      -0.77661448
C        5.60705154       0.52761663      -1.62538385
C        6.48693691       0.26582084      -2.68123370
C        6.93529734      -1.03612812      -2.91519089
C        6.49321299      -2.08033324      -2.10032207
C        5.61837995      -1.82279653      -1.03604545
C        1.24159188       0.38971275       1.45262133
O        1.26086528      -0.71707392       0.59446004
C        0.25277551      -1.01435403      -0.37346796
C        0.94539034      -1.82082918      -1.49037361
C       -0.80051277      -1.91224305       0.30282881
H       -6.19524751      -1.95921512      -4.20580977
H       -5.44999053      -2.87821702      -2.83333898
H       -7.24261255      -2.83111291      -3.01755913
H       -7.36583933      -1.01519985       0.11910352
H       -5.51932967       0.68876546       2.38455353
H       -3.95661567       1.54908152       2.32698196
H       -3.99359502      -0.22102940       2.69079623
H       -3.01044576      -0.45752123      -4.00802505
H       -1.29266460      -0.68188037      -2.61961864
H       -1.49119006       1.09054856      -2.60680490
H        0.50834487       0.82279661      -1.47816175
H       -0.86578043       2.30811220      -0.28393476
H       -0.68174258       4.39059357       2.45460514
H        1.38654965       3.28503854       5.30514642
H       -0.00159305       3.94054632       4.47140367
H        1.65289505       4.51471900       3.99765424
H        3.35888174       2.46080711       4.90843343
H        4.74264384      -1.81897717       1.56819665
H        3.73902254       0.76887984       0.28477856
H        5.27107764       1.54466285      -1.46148618
H        6.82353662       1.07412921      -3.31748223
H        7.61990954      -1.23375408      -3.73137906
H        6.82905791      -3.09124744      -2.29398000
H        5.27901296      -2.65525189      -0.43475791
H        1.65637351      -1.18099033      -2.05515329
H        1.52920044      -2.65736366      -1.04878354
H        0.21180987      -2.26089018      -2.19743508
H       -0.31964158      -2.84610599       0.66953858
H       -1.24513312      -1.41308856       1.18806418
H       -1.60583088      -2.19977446      -0.40422314
