27
Properties=species:S:1:pos:R:3 004076=T pbc="F F F"
C        2.33319967      -0.94474855      -0.67393841
C        1.61750811       0.34055362      -1.09567993
C        0.27152267       0.73265744      -0.41287239
C        0.26378524       1.05821368       1.08680163
C       -1.20235239       1.54007045       1.24435274
C       -1.98299025       0.59715125       0.28836467
C       -0.86229776      -0.28424197      -0.31293816
C       -1.24283358      -1.00328607      -1.61079753
C       -0.38417810      -1.15977699       0.80958892
O       -0.64854158      -2.34316809       0.95538121
C        0.36165157      -0.31883577       1.79193088
H        2.83028626      -0.81969301       0.30665177
H        1.65503811      -1.81968554      -0.67329260
H        3.13935055      -1.15863479      -1.40726319
H        1.42194465       0.26229311      -2.18754051
H        2.32793687       1.18559557      -0.96690267
H       -0.06393104       1.62741152      -0.99643831
H        1.02193792       1.80107569       1.41425179
H       -1.29865860       2.59774446       0.91303885
H       -1.56602614       1.45892308       2.29199655
H       -2.49515651       1.18859203      -0.50303166
H       -2.73812780      -0.00845035       0.83760888
H       -0.40285149      -1.63184277      -1.97216131
H       -2.12477648      -1.65541509      -1.43716468
H       -1.49656479      -0.26157577      -2.39746913
H       -0.13968262      -0.32370633       2.78399940
H        1.40480750      -0.65722080       1.92352321
