52
Properties=species:S:1:pos:R:3 004366=T pbc="F F F"
C       -6.18851318       0.95833048      -0.46818391
O       -5.37122334       0.73577841       0.65416534
P       -3.86614949       0.11959925       0.12869431
O       -4.04698149      -0.86021809      -1.01303336
C       -2.80926999       1.50345017      -0.41354869
C       -1.53733403       1.01527853      -1.05873106
O       -1.60489691       0.40346959      -2.11381049
C       -0.18410869       1.39294961      -0.49592199
N        0.71773026       0.24121668      -0.25672450
C        1.40636694      -0.28551121      -1.45436433
C        2.44407701       0.69256286      -1.93498406
C        2.28247832       1.36769873      -3.15643562
C        3.24483536       2.28800180      -3.58351962
C        4.37069144       2.54185977      -2.79497959
C        4.53604923       1.87616602      -1.57706898
C        3.57612206       0.95574665      -1.14590109
C        0.22921509      -0.75654951       0.72834250
C       -0.47507272      -1.97725978       0.09340561
C        1.36484487      -1.13316766       1.66472825
C        1.62579560      -0.31166010       2.77784790
C        2.69484948      -0.58996700       3.63408445
C        3.52678109      -1.68221139       3.38301366
C        3.29507038      -2.49408607       2.27141608
C        2.22684686      -2.22108960       1.41143177
O       -3.10270990      -0.65505863       1.44076738
C       -3.89659601      -1.74676911       1.83173947
H       -6.47118435      -0.00259529      -0.95095123
H       -5.70881467       1.64340498      -1.20090144
H       -7.12611965       1.44457841      -0.12847418
H       -3.36481839       2.11995957      -1.14978493
H       -2.59256828       2.14332408       0.46681881
H       -0.30725082       1.94635545       0.45949746
H        0.29154495       2.11414114      -1.19308787
H        0.68014623      -0.53172477      -2.25637176
H        1.94600744      -1.22435928      -1.21414528
H        1.41174887       1.18595234      -3.77414550
H        3.11652114       2.80669784      -4.52478952
H        5.11366070       3.25576289      -3.12651789
H        5.40685358       2.07535240      -0.96596926
H        3.71159887       0.44920998      -0.19768326
H       -0.54815664      -0.28022336       1.36669117
H        0.17687113      -2.54187069      -0.60126608
H       -0.81362090      -2.66977770       0.89345991
H       -1.36981050      -1.65855606      -0.47412231
H        1.00262370       0.55081212       2.98087501
H        2.88180666       0.04604059       4.48963857
H        4.35602578      -1.89467106       4.04539285
H        3.94874217      -3.33326338       2.07152761
H        2.08790056      -2.86160280       0.55312832
H       -4.91082811      -1.41983986       2.15115282
H       -3.96174543      -2.50743457       1.02297352
H       -3.41603229      -2.23423336       2.70462505
