164
Properties=species:S:1:pos:R:3 004791=T pbc="F F F"
C        5.41775917       3.01368007       2.29933970
C        4.19208204       3.66519683       1.66038784
C        2.96904329       3.66705109       2.60574262
C        3.03969731       4.85366031       3.57729491
C        1.64697854       3.71694113       1.80290210
O        1.23039241       2.42311342       1.35172702
C        0.96621386       1.34046398       2.20799117
C       -0.14792037       1.33393271       3.08649413
C       -0.29313156       0.28684719       4.01194617
C        0.61172519      -0.79044347       4.05974954
C        0.42877198      -1.98336688       5.02104781
C       -0.09645564      -3.19396465       4.21957169
C        1.77927126      -2.35764588       5.68400263
C       -0.57530870      -1.68622396       6.16504188
C        1.64346157      -0.81538528       3.10841218
C        1.82256180       0.22124244       2.17771750
C        2.94700997       0.10406277       1.17000701
C        2.70751324      -1.04724724       0.21695139
C        3.18107003      -2.30605332       0.62339670
C        2.79241536      -3.49025885      -0.02185618
C        3.24865022      -4.88646664       0.45166050
C        2.01144662      -5.76358520       0.75393162
C        4.10991439      -4.84525210       1.73892585
C        4.09098291      -5.54716819      -0.65865857
C        1.95113801      -3.37801251      -1.13813376
C        1.48995134      -2.13515590      -1.60321664
C        1.90491692      -0.94364427      -0.95474110
O        1.46319871       0.28712651      -1.48390280
C        2.26345463       1.42216643      -1.84727810
C        3.62513551       1.03755783      -2.47070404
C        4.56061291       2.25923175      -2.48031039
C        3.43692933       0.49244912      -3.90853489
C        4.53737439      -0.49494669      -4.29806048
C        0.70410575      -2.14973266      -2.90268918
C       -0.36717871      -1.08984762      -3.05490010
C       -0.39187230      -0.34750029      -4.24467878
C       -1.34825579       0.65438678      -4.47563543
C       -1.31721178       1.46288081      -5.78932932
C       -1.83430404       0.56961996      -6.93404936
C        0.12933291       1.92089400      -6.11289193
C       -2.19355629       2.73868964      -5.72729328
C       -2.35057734       0.83325569      -3.50453959
C       -2.35663673       0.10537062      -2.30241032
C       -1.38415563      -0.90289190      -2.09463162
O       -1.39105845      -1.69692960      -0.93915617
C       -2.38579796      -2.68572922      -0.65873061
C       -1.91652044      -4.08714238      -1.10795419
C       -2.29032128      -4.33824730      -2.57977088
C       -2.51177700      -5.17624261      -0.18619547
C       -2.02881330      -6.58623823      -0.53532929
C       -3.34970513       0.50927959      -1.23083206
C       -2.81709245       1.65226693      -0.39063256
C       -2.76315288       2.93531332      -0.95415241
C       -2.27679131       4.04055375      -0.23643642
C       -2.09919634       5.41050946      -0.92780376
C       -0.75353237       5.40669945      -1.67739562
C       -2.10250445       6.58318940       0.08843074
C       -3.23862420       5.68963791      -1.94379725
C       -1.79928934       3.81317738       1.06745856
C       -1.83765455       2.54229208       1.66252278
C       -2.38830305       1.45239772       0.93803512
O       -2.45221340       0.15656603       1.47727469
C       -3.25821807      -0.24374328       2.59155751
C       -4.70734880      -0.58339972       2.18058378
C       -5.53170145       0.68417240       1.90826669
C       -5.39992843      -1.49370766       3.22448041
C       -5.48176088      -0.89520673       4.63214534
C       -1.23004190       2.39325787       3.04363096
H        6.25630490       3.01342713       1.56790225
H        5.73789369       3.56885330       3.20221289
H        5.19663054       1.96270063       2.57433595
H        4.44422898       4.70330419       1.35221326
H        3.95761449       3.11192900       0.73145522
H        2.97463743       2.74187229       3.22639936
H        2.18140573       4.82295237       4.28246093
H        3.96740789       4.80750624       4.18286256
H        3.01356216       5.81656948       3.02380061
H        0.85030475       4.17437906       2.40664018
H        1.76749736       4.37770241       0.91732457
H       -1.14083515       0.31976102       4.68198196
H        0.62343414      -3.48618082       3.42266358
H       -0.25148622      -4.07427647       4.88153839
H       -1.06630104      -2.94837847       3.73412601
H        1.63892118      -3.10353842       6.49621941
H        2.48344231      -2.81830564       4.95744560
H        2.26455712      -1.45411430       6.11884251
H       -1.60884831      -1.57177427       5.77375531
H       -0.28230859      -0.76279783       6.71005357
H       -0.60475708      -2.52202584       6.89960494
H        2.31768733      -1.65637150       3.08599376
H        3.13053671       1.03388232       0.63728423
H        3.89690702      -0.05723679       1.72927860
H        3.82539901      -2.34252730       1.48767294
H        2.31810699      -6.75436776       1.15472046
H        1.41115935      -5.95361035      -0.16051736
H        1.35847325      -5.26862153       1.50436981
H        4.40348362      -5.87185042       2.04980615
H        3.54433633      -4.38711148       2.57904641
H        5.05002166      -4.27349063       1.57029548
H        3.49398473      -5.71352583      -1.58018221
H        4.47434507      -6.53809846      -0.32822682
H        4.96047812      -4.90531116      -0.92078585
H        1.66358629      -4.27125996      -1.67529465
H        1.68497230       2.02225107      -2.58562658
H        2.38419651       2.10113238      -0.98492810
H        4.11031706       0.26451598      -1.83557078
H        5.53102135       2.01574629      -2.96616604
H        4.78137968       2.58190021      -1.43980651
H        4.09615116       3.10993836      -3.02411946
H        2.46881355      -0.03110134      -3.99039014
H        3.40702845       1.33379381      -4.64133529
H        4.47094178      -1.39450754      -3.65431379
H        4.39519676      -0.80646372      -5.35438592
H        5.54415844      -0.04006185      -4.19683768
H        0.21302091      -3.13613673      -3.04551662
H        1.44514237      -2.08796830      -3.72539286
H        0.34278670      -0.56995448      -5.00453975
H       -1.20252872      -0.33741816      -7.04362208
H       -1.82107809       1.11969712      -7.89782367
H       -2.87661347       0.24178970      -6.72899175
H        0.57613980       2.44171902      -5.23907622
H        0.78568781       1.07387000      -6.39763849
H        0.14133207       2.62171590      -6.97654184
H       -2.05881438       3.35808432      -6.63965284
H       -1.91333865       3.36004773      -4.84751266
H       -3.27363702       2.48790641      -5.67276820
H       -3.13902705       1.55172841      -3.65859798
H       -3.35180511      -2.44386202      -1.15275126
H       -2.56339588      -2.66971367       0.43616973
H       -0.81024784      -4.12896928      -1.00440391
H       -1.68185587      -5.17252968      -2.98933285
H       -2.09680330      -3.44160250      -3.20261653
H       -3.36698160      -4.59225449      -2.67567049
H       -2.20659043      -4.96680698       0.86378443
H       -3.62200018      -5.14885912      -0.22642877
H       -0.92087678      -6.60986876      -0.62840778
H       -2.33296415      -7.29329599       0.26532799
H       -2.48246557      -6.93188961      -1.48852231
H       -4.30339471       0.82388901      -1.70672008
H       -3.62940887      -0.34257312      -0.59973407
H       -3.10036680       3.05490695      -1.96839962
H       -0.72996225       4.59448443      -2.43563145
H        0.08739931       5.23705366      -0.96815644
H       -0.58447485       6.37745386      -2.19625552
H       -1.17228287       6.59975676       0.69791380
H       -2.98055168       6.50933009       0.76568866
H       -2.14579459       7.56776027      -0.42951910
H       -3.20812860       6.74051607      -2.30914701
H       -3.14837207       5.05245612      -2.84967181
H       -4.23150019       5.51659190      -1.47254614
H       -1.36782960       4.62479118       1.63087189
H       -3.27200983       0.52357877       3.38439750
H       -2.78641960      -1.15400030       3.02292938
H       -4.67069150      -1.17067873       1.23960970
H       -5.15106123       1.21667456       1.01602120
H       -5.49440004       1.38342179       2.77101855
H       -6.59317135       0.42062187       1.70453598
H       -6.42842193      -1.73249447       2.88029335
H       -4.84897399      -2.45748849       3.28510578
H       -4.46822948      -0.73688009       5.05774650
H       -6.02475718      -1.59921898       5.30005095
H       -6.03926891       0.06411465       4.62903019
H       -2.03987482       2.20149111       3.77137571
H       -0.81232604       3.34405023       3.42390310
