47
Properties=species:S:1:pos:R:3 005727=T pbc="F F F"
C        4.15633375      -1.78879762       3.37751866
O        3.56130275      -2.02380633       2.10533864
C        2.52299579      -1.25374101       1.55693066
C        1.97228327      -0.15461936       2.23160366
C        0.93891141       0.59386850       1.65192976
C        0.40407763       0.24343905       0.39371334
C        0.98525083      -0.85408377      -0.27735607
C        2.03401507      -1.59940471       0.29391044
O        2.61309245      -2.69771469      -0.36327895
C        2.21382596      -3.18018398      -1.64250414
C       -0.86034365       0.98828039      -0.13072124
C       -1.06405434       0.86341910      -1.69212176
C       -1.67242650      -0.48237449      -2.23980955
O       -2.71953693      -0.19974715      -3.15512324
C       -2.20661272       0.01464301      -4.45331806
C       -2.24813028      -1.39587254      -1.17648103
C       -2.49433344      -0.99211303       0.06839105
C       -2.05009923       0.33426653       0.48036374
C       -2.80927793       1.17414922       1.14079702
C       -2.27757207       2.54807963       1.02663125
N       -0.94908789       2.42720693       0.36411105
O       -0.91628805       3.30813106      -0.67298492
C        0.13239774       2.85993009       1.28588555
C        0.43009175       1.80977635       2.34871880
H        3.39218525      -1.87602008       4.17858198
H        4.94460898      -2.54876164       3.55469459
H        4.62273096      -0.78126068       3.40072606
H        2.35141178       0.13510308       3.20261486
H        0.64043541      -1.14156647      -1.24406402
H        2.36331263      -2.39312283      -2.41157633
H        2.83642515      -4.05865611      -1.90876136
H        1.14876933      -3.49424118      -1.61727408
H       -0.10321238       1.07724643      -2.20874804
H       -1.77200706       1.65451741      -2.01989963
H       -0.87101855      -1.07370450      -2.73918140
H       -3.03727691       0.33975887      -5.11255770
H       -1.79168036      -0.92781398      -4.87324769
H       -1.43501596       0.81599115      -4.46354582
H       -2.58731494      -2.37903749      -1.47844138
H       -3.04849559      -1.62392741       0.75123012
H       -3.78105540       0.92651397       1.54935826
H       -2.98887217       3.14326810       0.40996023
H       -2.23662211       3.00937179       2.03861258
H       -0.12739026       3.82440775       1.77900880
H        1.06719172       3.05517808       0.70904767
H       -0.47827518       1.55699356       2.93477140
H        1.19435031       2.21703099       3.04654623
