42
Properties=species:S:1:pos:R:3 006924=T pbc="F F F"
C        3.04184471      -0.96022112       2.77904942
C        2.62239406       0.00257573       1.66135399
C        1.09701466       0.06327494       1.54758304
C        0.62676220       1.09375680       0.49392770
N       -0.74035547       0.80255950       0.04691312
C       -1.86547118       0.82718434       0.94064230
O       -1.74901325       1.36412284       2.07632183
C       -3.16902867       0.24677182       0.53913314
C       -3.24465057      -0.74206316      -0.46068129
C       -4.47996419      -1.28704558      -0.82470092
C       -5.64950873      -0.85786338      -0.19369411
C       -5.58604288       0.11390014       0.80714852
C       -4.35361128       0.66185183       1.17606366
C        1.56738572       1.33093154      -0.72507195
C        2.91039390       0.57575633      -0.79443071
C        3.21697386      -0.43813675       0.32157284
C        1.79759497       0.26791834      -1.81487699
C        1.07231567      -1.08805541      -1.77205595
C        2.06314770       0.82433713      -3.21889749
H        2.67803345      -1.98937159       2.56979961
H        4.14883326      -0.98264748       2.86932096
H        2.62401297      -0.62293428       3.75155151
H        3.00910704       1.01500226       1.91764277
H        0.68913433      -0.94679394       1.33801810
H        0.67959180       0.35756367       2.53569007
H        0.60401276       2.07560000       1.01739246
H       -0.92420736       0.67325221      -0.97277117
H       -2.35239199      -1.11352065      -0.94734288
H       -4.52940694      -2.04795327      -1.59295214
H       -6.60426037      -1.28185673      -0.47681233
H       -6.49268914       0.44332679       1.29811326
H       -4.32827297       1.41696617       1.95197138
H        1.62999941       2.38032849      -1.08770595
H        3.74814384       1.21649465      -1.14632996
H        4.32259475      -0.48986950       0.42368389
H        2.88758079      -1.46473365       0.06112876
H        0.17917830      -1.04823597      -2.43006836
H        0.72740872      -1.38622205      -0.77172043
H        1.75010536      -1.87713513      -2.15939586
H        2.66414367       0.09350311      -3.79959252
H        1.09692565       0.98845715      -3.74033865
H        2.61424143       1.78922387      -3.19458269
