57
Properties=species:S:1:pos:R:3 007221=T pbc="F F F"
C       -2.34062117       0.08569721       2.96660860
C       -2.63528569       0.95233426       1.73312476
N       -1.47787621       0.97865676       0.80357949
C       -1.45547895      -0.01416968      -0.30566724
C       -0.46884188       0.46298147      -1.40475683
C        0.97029258       0.02064937      -1.09306326
O        1.87175731       0.66342277      -1.97985347
C        2.34378828       1.88679647      -1.44288244
C        3.62207486       1.66252020      -0.68198896
C        3.61648594       1.60302445       0.72173861
C        4.80099658       1.34908937       1.42001577
C        5.99600864       1.14940750       0.72344434
C        6.00851671       1.20297413      -0.67298674
C        4.82621489       1.45657564      -1.37511403
C        1.05223983      -1.50457988      -1.30271550
C       -0.18987135      -2.27369389      -0.73654811
O        0.36139203      -3.36946749      -0.01158585
C        1.72616331      -3.22366801       0.08077046
O        2.46891291      -4.02725936       0.70372034
N        2.20392123      -2.09640856      -0.62361551
C        3.60489556      -1.88158437      -0.97256684
C       -1.06744416      -1.43267883       0.22698768
O       -2.21361239      -2.16819400       0.57295597
C       -3.97608405       0.69769742       1.05163742
C       -4.72469031      -0.48135511       1.25171212
C       -5.93749173      -0.67246181       0.58269201
C       -6.42034382       0.30494652      -0.28924975
C       -5.69210808       1.47795225      -0.49372995
C       -4.47904134       1.67471748       0.17183276
H       -3.15604851       0.19952106       3.71275443
H       -2.23935760      -0.98607182       2.72214101
H       -1.39262089       0.42044808       3.43914583
H       -2.72622491       1.97689911       2.16521652
H       -1.44776783       1.94487257       0.40084765
H       -2.44619063      -0.06093976      -0.80524174
H       -0.51793385       1.56438526      -1.53730787
H       -0.77807467       0.03583405      -2.38574088
H        1.20547627       0.23386626      -0.02239003
H        2.55080495       2.57551292      -2.28924235
H        1.58836000       2.41245321      -0.81261945
H        2.69733356       1.74995270       1.27506387
H        4.79181241       1.30386804       2.50133486
H        6.91146505       0.95064919       1.26546476
H        6.93346665       1.04310575      -1.21174135
H        4.84615362       1.48319328      -2.45760816
H        1.13021479      -1.72444573      -2.39201270
H       -0.80778833      -2.65731423      -1.57819504
H        4.14639782      -1.47275436      -0.09464010
H        4.07178470      -2.84203302      -1.27657016
H        3.69209930      -1.17327085      -1.82065140
H       -0.46491947      -1.29211602       1.15170196
H       -2.74358780      -2.30717187      -0.25519301
H       -4.38436341      -1.25913904       1.91962455
H       -6.50400358      -1.58110490       0.74089543
H       -7.35923083       0.15350611      -0.80596736
H       -6.06664690       2.23543188      -1.17005390
H       -3.92547938       2.58893986      -0.00351125
