29
Properties=species:S:1:pos:R:3 007899=T pbc="F F F"
C        2.81107931       1.68664701       0.43413541
C        1.99181562       0.50008039      -0.00780761
C        2.62867842      -0.53155297      -0.71123359
C        1.91980377      -1.65648817      -1.11725369
C        0.55599717      -1.77185326      -0.84154393
O       -0.13298827      -2.91455324      -1.25042463
C       -0.12014975      -0.74110372      -0.15468055
C        0.59988338       0.41516702       0.25943918
C       -0.06789482       1.49057643       1.10155420
C       -1.59508572       1.46698466       1.04327476
C       -2.11769467       0.04257949       1.20366903
C       -1.62151345      -0.86341864       0.06383953
C       -2.37738170      -0.58458537      -1.24646557
H        2.66575370       1.87057827       1.51920952
H        2.50538733       2.58651887      -0.13940249
H        3.89685031       1.52253927       0.26578701
H        3.68643296      -0.47356615      -0.93723776
H        2.43584949      -2.44575555      -1.64928159
H        0.33011590      -3.66747396      -1.74594382
H        0.25076640       1.35275882       2.15769978
H        0.26318423       2.49854298       0.77292166
H       -1.94488569       1.90573538       0.08496823
H       -1.99956658       2.09897427       1.86334963
H       -1.76789777      -0.36690328       2.17749331
H       -3.22907951       0.05467480       1.23282676
H       -1.85603353      -1.90796731       0.36753592
H       -3.47454253      -0.61748981      -1.07653122
H       -2.13131788      -1.35666011      -2.00511056
H       -2.10556611       0.40701384      -1.66478691
