27
Properties=species:S:1:pos:R:3 007829=T pbc="F F F"
O        2.20348090      -0.75622773       2.12533180
C        1.92676832      -0.30324442       0.98246653
C        2.94662704      -0.34036874      -0.07128682
C        2.59728768      -0.19383633      -1.34644488
C        1.15494107      -0.24644319      -1.75075226
C        0.23645287       0.55335763      -0.79013715
C        0.62694018       0.43245059       0.74234579
C       -0.56970886      -0.16398184       1.55028320
C       -1.01464395      -1.43930598       0.85798428
C       -1.38988457      -1.28996568      -0.42442780
C       -1.25410187       0.12070135      -0.97571110
C       -2.13172115       1.03406345      -0.07691327
C       -1.74952332       0.83953413       1.42547806
H        3.99060716      -0.45420809       0.19289003
H        3.36263784      -0.16806073      -2.11200600
H        0.86286818      -1.31777431      -1.77324003
H        1.04785572       0.14736325      -2.78443484
H        0.32695353       1.62429511      -1.08288407
H        0.80544702       1.46280432       1.12466010
H       -0.31758396      -0.34269552       2.61777929
H       -1.05095998      -2.39858003       1.36349834
H       -1.74069019      -2.12260339      -1.02511933
H       -1.57332721       0.17702422      -2.03894950
H       -3.20418911       0.78072037      -0.22683545
H       -1.99547266       2.09777351      -0.37060764
H       -1.47056623       1.81606470       1.87815967
H       -2.62649446       0.45114338       1.98887305
