27
Properties=species:S:1:pos:R:3 008783=T pbc="F F F"
C        2.15020778      -1.69937911      -1.38944268
N        1.47973208      -0.46190343      -0.97745061
O        2.45715043       0.44187909      -0.64069649
C        2.07240929       1.05632530       0.56297365
C        1.24669762       0.05323032       1.31908144
C        0.27548614       0.68135327       2.33010103
O       -0.76593234       1.39139038       1.67051685
C       -1.40175182       0.86212771       0.54883150
C       -2.64233464       1.37305138       0.15272368
C       -3.30620544       0.82661346      -0.94842447
C       -2.72967398      -0.22893857      -1.65903355
C       -1.48099942      -0.73025625      -1.27959924
C       -0.79751563      -0.17896039      -0.18215155
C        0.58765890      -0.68756429       0.17590000
H        2.76402935      -2.11313854      -0.55857949
H        2.81276233      -1.49396329      -2.25700395
H        1.39923714      -2.45404412      -1.70735376
H        1.49060348       1.97586730       0.33018910
H        2.97430671       1.33919388       1.14647277
H        1.93442893      -0.63883442       1.85628848
H        0.81931053       1.37036049       3.01045708
H       -0.17642768      -0.12637496       2.94530337
H       -3.09807641       2.18268310       0.70831327
H       -4.27014469       1.21745844      -1.24760996
H       -3.24704188      -0.65405614      -2.50937257
H       -1.04010164      -1.53882082      -1.84898064
H        0.49218489      -1.76529979       0.44854674
