62
Properties=species:S:1:pos:R:3 008047=T pbc="F F F"
C       -5.41961790       0.37805376      -3.15671049
C       -4.28916533      -0.21851792      -2.39003699
O       -3.69600099      -1.23504355      -2.84259073
O       -3.94032086       0.32683162      -1.14863203
C       -2.84628677      -0.13016713      -0.34601841
C       -3.26146126      -0.01502082       1.13383142
C       -2.10138164      -0.28539280       2.12710653
C       -0.99040106       0.72054697       1.84037687
C       -0.44207778       0.43559502       0.44066111
C        0.19753779      -0.99342377       0.40728403
C        1.60031397      -1.04972660       1.05806281
C        2.63346168      -0.33254491       0.23272755
C        3.20635296      -0.79483900      -0.94433392
N        4.05358739       0.13090295      -1.46100383
C        4.79541757      -0.01176633      -2.68984455
C        4.89270812      -1.33907456      -3.37735258
O        5.34004921       0.98772955      -3.22881495
C        4.01637674       1.18534211      -0.60887655
C        4.71881751       2.39729566      -0.67838410
C        4.50391962       3.34941557       0.33385710
C        3.60792018       3.08420509       1.38904290
C        2.92175875       1.86096742       1.44776621
C        3.15383401       0.93062043       0.43316881
N       -0.66341493      -2.06080275       0.97244749
C       -1.53855433      -1.75653556       2.13831848
C       -2.70227726      -2.78206564       2.17246556
C       -0.73179975      -2.00256734       3.43664515
C       -1.53699455       0.66962126      -0.66702429
C       -1.83762977       2.18978035      -0.79209848
O       -1.00714713       0.22888049      -1.89790266
H       -5.26013662       0.23862534      -4.24717870
H       -5.48836194       1.46499630      -2.94057982
H       -6.36911247      -0.11377196      -2.85859928
H       -2.68222466      -1.20227622      -0.56014990
H       -3.64946199       1.01099579       1.31759919
H       -4.12213362      -0.68517476       1.33641078
H       -2.50226015      -0.06047400       3.14130453
H       -1.37794455       1.75713520       1.91773553
H       -0.18856145       0.66900518       2.60094358
H        0.36761634       1.17087908       0.24890156
H        0.37771084      -1.26061087      -0.65759550
H        1.59720671      -0.63129364       2.08005444
H        1.91448864      -2.11224189       1.14853347
H        2.98973937      -1.75203526      -1.40125772
H        5.19172757      -2.12039825      -2.64754355
H        3.90897699      -1.60196887      -3.81921107
H        5.65259141      -1.30420711      -4.18745716
H        5.41747936       2.61774116      -1.47060858
H        5.03212186       4.29362843       0.30352427
H        3.45031950       3.82639059       2.16072509
H        2.23526940       1.65537197       2.25801654
H       -1.17447275      -2.55068131       0.20263341
H       -3.26777810      -2.79301359       1.21799233
H       -2.31203937      -3.81229925       2.32193702
H       -3.40793749      -2.55129803       2.99983337
H       -0.29202479      -3.02339232       3.43108481
H       -1.38743583      -1.91216689       4.32993625
H        0.09871892      -1.28929063       3.57016362
H       -2.35493863       2.59112499       0.10127617
H       -0.89700349       2.76052666      -0.94491081
H       -2.49262945       2.39313514      -1.66587722
H       -1.64503378       0.45873942      -2.62177411
