64
Properties=species:S:1:pos:R:3 009207=T pbc="F F F"
C       -5.90434499       1.72515974      -0.78566935
C       -4.99817514       1.03762027       0.24399345
C       -4.55184095       2.05474067       1.30637379
C       -3.79458593       0.38103813      -0.46877840
C       -2.97011305      -0.52243981       0.46182776
C       -1.87081569      -1.25868816      -0.32105604
C       -0.91030089      -2.05290694       0.60446476
C       -1.58463944      -3.32765346       1.14420637
C        0.46018042      -2.32943192      -0.09686160
C        0.37696785      -3.34822350      -1.25792218
O        0.27949696      -4.66084263      -0.77621112
C        1.57006950      -2.68694293       0.92925776
C        3.00790964      -2.60596375       0.37317484
C        3.41344280      -1.21260806      -0.13075474
O        3.07076490      -0.23891159       0.82724943
Si       3.37369018       1.36804357       0.23281426
C        4.66822881       1.42714378      -1.12709396
C        4.06724370       2.34159553       1.67082185
C        1.74294034       2.16857561      -0.35101083
C        1.36246433       1.63827210      -1.74444097
C        0.62639158       1.82778291       0.65106929
C        1.91276944       3.69656820      -0.42696962
H       -6.27089314       0.98718215      -1.53027810
H       -5.35191806       2.52825283      -1.31881713
H       -6.78906170       2.17069246      -0.28379788
H       -5.59811405       0.24567896       0.74591733
H       -4.03642980       1.54436152       2.14588230
H       -5.43412008       2.57778719       1.73270631
H       -3.86815080       2.81135723       0.86455596
H       -4.17271876      -0.24105817      -1.31058756
H       -3.13753827       1.16932320      -0.89946193
H       -2.49426061       0.09816546       1.25018310
H       -3.64435407      -1.26156686       0.94399030
H       -1.29385343      -0.49604351      -0.88962447
H       -2.34166208      -1.94043075      -1.06233477
H       -0.69623240      -1.40430859       1.48314167
H       -1.97136126      -3.95689246       0.31521533
H       -0.87498581      -3.92459882       1.75217459
H       -2.43548867      -3.06174262       1.80484081
H        0.75710119      -1.36691103      -0.55135199
H       -0.49439877      -3.12118404      -1.90891761
H        1.28644991      -3.25442775      -1.89142380
H        0.25447795      -5.24786709      -1.57646869
H        1.50171478      -2.00818092       1.80718763
H        1.40957308      -3.71444390       1.31847371
H        3.14537190      -3.34752746      -0.44182994
H        3.70472993      -2.89531870       1.18998931
H        4.51456716      -1.22211902      -0.29058594
H        2.91757435      -1.02595089      -1.10805195
H        4.83104080       2.48051658      -1.43335541
H        5.62285126       1.00876372      -0.74706907
H        4.33229223       0.84019853      -2.00589515
H        4.96698592       1.82411135       2.06191838
H        4.35094764       3.35954885       1.33442270
H        3.30647731       2.41228649       2.47448985
H        0.39670912       2.07628205      -2.07789147
H        2.13614665       1.90812673      -2.49408784
H        1.24925351       0.53729934      -1.73840539
H        0.87060510       2.21917673       1.66172565
H       -0.33931658       2.27510051       0.32925638
H        0.48775110       0.72955452       0.72808793
H        2.74787896       3.96676321      -1.10787391
H        2.12135293       4.12447793       0.57600652
H        0.98526120       4.17363729      -0.81054049
