38
Properties=species:S:1:pos:R:3 010441=T pbc="F F F"
C        0.03841485      -2.93688672      -0.36644002
C        0.10245795      -1.63657051       0.45690706
C        1.55834018      -1.12047102       0.52365531
C        1.57641561       0.07148293       1.46594366
C        1.12911153       1.12053750       0.49386557
C       -0.41222321       0.94290108       0.31148074
C       -0.90498834      -0.52454442      -0.04821478
O       -1.03691082      -0.66277270      -1.44571832
C       -2.29436772      -0.79103299       0.61320295
C       -3.38811347       0.20431284       0.18898281
C       -3.73506150       1.29076873       1.13564401
O       -4.50452433       0.11512609       1.04367486
C        1.97200971       0.72956418      -0.74126565
C        3.43374459       1.23065203      -0.60659814
C        1.43374093       1.30738907      -2.06754231
O        1.98112512      -0.68522780      -0.76587138
H        0.67706129      -3.71546802       0.10291015
H        0.39741310      -2.77156495      -1.40451654
H       -0.99993466      -3.32606851      -0.40328582
H       -0.17278964      -1.92971646       1.49626278
H        2.24068241      -1.91322438       0.90118272
H        2.59530821       0.26606926       1.86049438
H        0.89929613      -0.03408203       2.34428647
H        1.36038651       2.14548683       0.85953596
H       -0.86893445       1.25432295       1.27593785
H       -0.78705291       1.68010081      -0.42974423
H       -1.63810495       0.04831152      -1.78546690
H       -2.64762509      -1.80502113       0.32990118
H       -2.18514435      -0.78964668       1.72130809
H       -3.71491133       0.28998394      -0.86800565
H       -4.27477350       2.15865039       0.70366973
H       -3.19313667       1.33742791       2.10333930
H        3.97146116       0.74557828       0.23168093
H        4.01402973       0.99133934      -1.52374518
H        3.45739864       2.33132372      -0.45496911
H        2.10674577       1.03831611      -2.90984708
H        1.37352326       2.41526906      -2.00499961
H        0.43993026       0.92738375      -2.33763580
