32
Properties=species:S:1:pos:R:3 010412=T pbc="F F F"
C       -5.31358060       1.81597755       0.38580016
C       -4.50060168       0.74128440      -0.25157416
O       -4.97022966       0.10342263      -1.23278925
O       -3.23980768       0.43008095       0.27055403
C       -2.41479524      -0.62325296      -0.22971855
C       -2.94437618      -1.97411967       0.26819213
C       -0.97462329      -0.37508191       0.23814121
S        0.20341926      -1.45940656      -0.60863317
O        0.29250548      -2.70641732       0.26163991
C        1.78544672      -0.67360359      -0.39496833
C        2.28370008      -0.40971108       0.88780293
C        3.52548928       0.21340612       1.04428136
C        4.28632431       0.56650293      -0.08126295
C        5.60000201       1.27092713       0.08517997
C        3.77549149       0.31621233      -1.36459082
C        2.53332527      -0.30695405      -1.51926161
H       -6.04905891       1.36014785       1.08065943
H       -5.85352605       2.39673623      -0.39152078
H       -4.65387656       2.50466838       0.95411702
H       -2.43087503      -0.60677407      -1.34268541
H       -2.35853153      -2.80950024      -0.16747674
H       -2.89059880      -2.02762778       1.37647564
H       -4.00197873      -2.10820368      -0.03999928
H       -0.70005890       0.67559246       0.00273241
H       -0.89110981      -0.51066277       1.33803074
H        1.70983806      -0.68269152       1.76415951
H        3.89344708       0.41977352       2.04178870
H        6.09680767       0.95590140       1.02751570
H        5.42966196       2.36735733       0.11449379
H        6.28208341       1.03243592      -0.75858548
H        4.33824659       0.60298060      -2.24440908
H        2.15184000      -0.49940056      -2.51408901
