46
Properties=species:S:1:pos:R:3 011002=T pbc="F F F"
C        7.80328543       1.75496984      -1.11031822
C        7.44601325       1.08300810      -0.17537082
C        7.00984006       0.26501573       0.96393592
C        6.16473173      -0.93576043       0.51175482
C        4.83662472      -0.55475980      -0.16965092
C        3.81661838       0.04613815       0.81342420
C        2.46917747       0.36433074       0.14376814
C        1.60350976      -0.89058937      -0.06602171
C        0.27497663      -0.57944566      -0.77415231
C       -0.72243541       0.15676056       0.13182932
C       -2.05153179       0.32827972      -0.55200426
C       -3.07029733       0.93408143       0.07343036
C       -4.40541889       1.10863049      -0.60880927
C       -5.16889672      -0.22276398      -0.75676389
C       -6.61265079       0.05432986      -0.27008294
C       -7.15783787      -1.03045148       0.66510454
O       -7.35038193      -2.23096928      -0.03404917
O       -6.55184599       1.29671720       0.40794223
C       -5.34011262       1.91743000       0.20688236
O       -5.08527319       3.07021771       0.64518995
H        8.11643466       2.34466922      -1.93132504
H        7.91480091      -0.11197306       1.48554342
H        6.45144992       0.89822901       1.68254158
H        5.95308731      -1.57928421       1.39335251
H        6.76505985      -1.54776875      -0.19729222
H        4.41721978      -1.48091019      -0.61417228
H        5.02328734       0.15603871      -1.00326262
H        3.65898987      -0.64253918       1.67228424
H        4.22163599       0.99843183       1.21535615
H        1.92570072       1.07067860       0.80594960
H        2.64152676       0.87829176      -0.82731002
H        2.15515462      -1.61719273      -0.69787102
H        1.40263430      -1.38131315       0.91150377
H        0.46723914       0.01935253      -1.69171226
H       -0.17789608      -1.54517103      -1.09073910
H       -0.87166672      -0.42287728       1.06897920
H       -0.32895444       1.16208692       0.39103085
H       -2.19132927      -0.04432248      -1.56435946
H       -2.92859736       1.30971533       1.08457945
H       -4.27514362       1.59901955      -1.59866320
H       -5.17099091      -0.55578607      -1.81745450
H       -4.69173090      -1.02020186      -0.14352111
H       -7.28734463       0.16372974      -1.14793392
H       -6.47756968      -1.17825148       1.53573279
H       -8.14015034      -0.69834830       1.06281726
H       -6.48094211      -2.70947297      -0.03009241
