83
Properties=species:S:1:pos:R:3 011613=T pbc="F F F"
C       -1.37081615       4.04345053       2.53587447
C       -0.48079468       2.83024584       2.80064083
C       -1.08013544       1.56039536       2.18396708
C       -0.16861238       0.34456379       2.40842587
C       -0.58604772      -0.82997003       1.53971537
C        0.01267163      -1.13213751       0.35933921
C        1.17153489      -0.36366685      -0.24529380
C        0.75458781       1.02023410      -0.69421568
C       -0.40414505       1.21293791      -1.47036963
C       -0.79576309       2.49545151      -1.85788671
C       -0.03958548       3.61013938      -1.47312569
C       -0.42972875       4.90455828      -1.84923724
C        0.32408295       6.01018092      -1.44513838
C        1.46918785       5.83203243      -0.66324569
C        1.87291361       4.54674905      -0.28877356
C        1.12622048       3.42907743      -0.69131303
C        1.51879403       2.13712693      -0.31632120
Si       1.95196064      -1.32035386      -1.68093735
C        0.74521811      -1.44303087      -3.11087245
C        3.50432902      -0.47888297      -2.26630246
C        3.88139486      -0.55610760      -3.61492985
C        5.06433834       0.04775535      -4.05204710
C        5.88625132       0.71790147      -3.14217401
C        5.52761447       0.78124754      -1.79403888
C        4.34446192       0.17982098      -1.35561466
C        2.37464024      -3.02424661      -1.07713798
C        1.48887407      -4.09184553      -1.29222522
C        1.78756076      -5.36432784      -0.79661705
C        2.96513466      -5.57571208      -0.07463057
C        3.84252383      -4.51298646       0.15710616
C        3.54711891      -3.23882317      -0.33781384
B       -1.79126091      -1.73544188       2.03017659
O       -2.70948839      -1.20253788       3.03164404
C       -3.97632467      -1.45203020       2.46705957
C       -4.80339666      -0.14705057       2.49105249
C       -4.67388020      -2.46504334       3.40558685
C       -3.73125729      -2.02951726       1.00713672
C       -4.72746342      -3.13506480       0.59213682
C       -3.75940517      -0.94594936      -0.11121281
O       -2.44940814      -2.59480851       1.05031023
H       -1.47801604       4.21561968       1.44419435
H       -2.37764713       3.89001985       2.98058031
H       -0.91386853       4.94748454       2.99172420
H       -0.36538598       2.69255634       3.89691214
H        0.52387155       3.02573526       2.36350559
H       -2.06946081       1.36342582       2.64827099
H       -1.23816737       1.72475980       1.09966194
H       -0.22150666       0.05000183       3.47895041
H        0.88828299       0.62407011       2.22818367
H       -0.35158318      -1.99015749      -0.20163939
H        1.97243387      -0.30487116       0.51948214
H       -1.02140610       0.37112842      -1.75565066
H       -1.69750071       2.61624144      -2.44730537
H       -1.31393739       5.05800863      -2.45375858
H        0.01839289       7.00694322      -1.73504364
H        2.04348462       6.69179468      -0.34377139
H        2.76003775       4.42787577       0.32262999
H        2.40578159       2.00242153       0.29139289
H        0.64504041      -0.45106779      -3.59879698
H        1.12220759      -2.17829632      -3.85038105
H       -0.24680943      -1.77720120      -2.74277758
H        3.26752855      -1.08586459      -4.33186171
H        5.34594350      -0.00778633      -5.09535860
H        6.80324741       1.18129623      -3.48115910
H        6.16817843       1.29274398      -1.08694430
H        4.09537919       0.22410491      -0.30516822
H        0.56540187      -3.94668836      -1.83795828
H        1.10449911      -6.18609681      -0.97115325
H        3.19383730      -6.56073155       0.31162483
H        4.74970683      -4.67548712       0.72553962
H        4.23152095      -2.42521973      -0.13772398
H       -5.79601583      -0.31474411       2.02081642
H       -4.28358429       0.67981045       1.96350326
H       -4.96265861       0.19161620       3.53800588
H       -4.71363420      -2.06238605       4.44115828
H       -4.10728245      -3.42006194       3.44290658
H       -5.71680652      -2.66658382       3.08265859
H       -4.61877149      -4.03570929       1.23236979
H       -5.77370752      -2.76163769       0.65168528
H       -4.53088175      -3.46276211      -0.45193958
H       -3.42265419      -1.38125970      -1.07769078
H       -3.07951251      -0.10026887       0.12356347
H       -4.78787852      -0.54711027      -0.25193559
