41
Properties=species:S:1:pos:R:3 011140=T pbc="F F F"
C       -4.71205402      -1.89994093      -0.73641896
C       -3.98446508      -2.53536181       0.29513276
C       -2.85126745      -1.91714807       0.85458496
C       -2.48193886      -0.66971556       0.35559353
C       -1.44067212       0.16941345       0.68200798
C       -1.59043970       1.28628351      -0.12856266
N       -2.65042491       1.14866938      -0.95692868
C       -3.19043281      -0.04634083      -0.64599586
C       -4.31518972      -0.63855978      -1.21835820
C       -0.60518318       2.42711615      -0.14180070
C        0.42706114       2.22321872      -1.28140574
C        1.41936291       1.14932942      -0.92282900
N        2.28012451       0.55756985      -1.78114891
C        2.99055458      -0.30829860      -1.03159056
C        3.98837806      -1.17925944      -1.46660977
C        4.58860586      -2.02180052      -0.51234615
C        4.18102205      -1.97882258       0.84009825
C        3.17102816      -1.09097540       1.25325589
C        2.60056517      -0.26449277       0.28717058
C        1.60582506       0.68475705       0.37213890
C        0.73766808       1.07627839       1.54037886
C       -0.38432004       0.02552335       1.74390656
C        0.11732468       2.46911293       1.23528132
H       -5.58154176      -2.38650457      -1.15878874
H       -4.30044647      -3.50509087       0.65695239
H       -2.28649735      -2.39705954       1.64336749
H       -2.97470133       1.82185034      -1.68658342
H       -4.86775676      -0.14443359      -2.00696049
H       -1.15185318       3.38100713      -0.30461825
H        0.98230409       3.17163345      -1.44328080
H       -0.08727800       1.96043842      -2.23114049
H        2.36701500       0.72835119      -2.80780971
H        4.28960723      -1.21103227      -2.50566722
H        5.36575271      -2.71029704      -0.81757720
H        4.64815858      -2.63445520       1.56331792
H        2.85044091      -1.05319971       2.28630434
H        1.35984645       1.13830860       2.45920181
H        0.03528834      -1.00359261       1.72585088
H       -0.85905269       0.18625400       2.73527316
H       -0.60444455       2.74586462       2.03527207
H        0.91402642       3.24540173       1.22133185
