81
Properties=species:S:1:pos:R:3 012584=T pbc="F F F"
C       -6.49171173      -3.81971629      -0.43081600
C       -5.16518174      -3.06316484      -0.70753564
C       -4.00629393      -4.08225327      -0.55679158
C       -5.13755549      -1.68367342       0.01456562
C       -5.80872389      -1.07459178      -1.23377990
C       -5.22547198      -2.25363778      -2.01717626
C       -3.79820226      -1.82431086      -2.46599333
C       -2.96229391      -1.13137885      -1.31107024
O       -2.64552981       0.17253669      -1.72685435
B       -2.93095939       0.95975764      -0.53975652
C       -1.86297604       2.03539203       0.00822798
C       -1.41932455       1.78863469       1.46313980
C       -0.61935195       2.94673344       1.98303039
C        0.76635929       3.03354414       2.06760005
O        1.11823684       4.23161394       2.50004274
C        0.02155279       4.92733546       2.69116196
C       -0.08482282       6.24465914       3.13231316
C       -1.37420696       6.79827478       3.24269606
C       -2.51455007       6.02945482       2.91732007
C       -2.37623019       4.69915293       2.48029063
C       -1.08492513       4.18065553       2.38228496
N       -0.71128212       2.16301813      -0.89496929
C        0.26296967       1.13023296      -1.12947834
O        0.12068855      -0.01296899      -0.61507924
C        1.41387372       1.38968635      -2.06000976
C        2.67214278       0.71940281      -1.57589450
C        3.43532640       1.30529178      -0.54372353
C        4.59100426       0.67007469      -0.06773107
C        4.97550160      -0.55319690      -0.63166016
C        4.23285820      -1.12603932      -1.63550845
C        3.07512247      -0.51509240      -2.12107013
C        4.80289033      -2.40870373      -2.10728391
C        6.05367168      -2.61906581      -1.23431997
C        6.16257724      -1.39032883      -0.27483056
C        6.19910755      -1.79508425       1.18108128
C        7.68774707      -1.94683739       1.44337061
O        8.41891953      -1.23681980       0.46405606
C        7.49018839      -0.65150697      -0.41925999
O       -3.88522517       0.33800084       0.36751681
C       -3.71422028      -1.03212182       0.09322236
C       -2.90127924      -1.62902328       1.26640907
H       -7.39209952      -3.18724845      -0.56449971
H       -6.49763469      -4.19584679       0.61462682
H       -6.59049231      -4.68603395      -1.11889292
H       -4.16511565      -4.92380863      -1.26495404
H       -3.00065115      -3.69099678      -0.77821596
H       -4.00403152      -4.49930532       0.47237095
H       -5.74626237      -1.60478618       0.94262595
H       -6.91833913      -1.10236704      -1.17887199
H       -5.47130402      -0.06731431      -1.56666631
H       -5.87605253      -2.65996694      -2.82243090
H       -3.25204210      -2.70897239      -2.85863174
H       -3.90467211      -1.12978297      -3.32886016
H       -2.00493895      -1.68769810      -1.19474093
H       -2.41589000       3.00113936      -0.00708114
H       -0.80743750       0.86818880       1.54236389
H       -2.30979033       1.65775524       2.11654200
H        1.46548752       2.24680659       1.81555447
H        0.79632262       6.82503812       3.37566956
H       -1.49412256       7.82046774       3.57617041
H       -3.50025196       6.46747396       3.00432492
H       -3.24427224       4.10339070       2.22837396
H       -0.59107002       3.07517174      -1.39118112
H        1.14157536       1.02815987      -3.07528069
H        1.59493893       2.48341752      -2.14358296
H        3.13188124       2.24975722      -0.10994190
H        5.17072995       1.12235740       0.72614764
H        2.50263903      -0.98962344      -2.90889987
H        5.07661126      -2.33110558      -3.18174744
H        4.06959274      -3.22966512      -1.95714565
H        6.94659313      -2.71928358      -1.88713497
H        5.95621264      -3.57827255      -0.67859587
H        5.80051066      -0.98574000       1.83191425
H        5.63573601      -2.72848032       1.40026778
H        7.94722106      -1.56475384       2.45387917
H        7.96744298      -3.02035268       1.38940149
H        7.38182951       0.42013979      -0.14398230
H        7.87897487      -0.68671163      -1.45923060
H       -3.46922573      -1.52196525       2.21406889
H       -1.94225986      -1.09177491       1.37912970
H       -2.64676296      -2.69134351       1.13940045
