51
Properties=species:S:1:pos:R:3 012728=T pbc="F F F"
O        6.15347847       2.31985442      -2.56519663
C        6.02729087       1.43382192      -1.67716514
O        7.08405289       0.56897513      -1.40932817
C        4.72437436       1.26703538      -0.94048794
O        4.12042296       2.51622107      -0.70425839
C        3.77735428       0.29458115      -1.69012324
O        3.61099256       0.75415735      -3.01076462
C        2.36970086       0.13823719      -1.02737593
O        1.59468267      -0.71788466      -1.83472826
C        2.35885294      -0.40863272       0.44661978
O        2.91740797       0.57980881       1.28219710
C        3.20447403      -1.67270849       0.47199406
O        4.35284836      -1.66711590       0.99343321
O        2.72325888      -2.84026949      -0.11512526
C        0.92904753      -0.71334160       0.97404122
C       -0.20317534      -0.08125636       0.41981007
C       -1.49089210      -0.35846956       0.87405919
O       -2.51831566       0.22308266       0.26242908
C       -3.78741567       0.00129834       0.58875385
C       -4.85323484       0.71754634      -0.15672686
C       -6.11167766       0.98281827       0.42072068
C       -7.09225772       1.66884226      -0.30283997
C       -6.82936673       2.10362582      -1.60336279
C       -5.58256503       1.85877826      -2.18191095
C       -4.59777045       1.17423785      -1.46330684
C       -4.08299636      -0.91920941       1.60307791
C       -3.04121328      -1.55933224       2.27514857
O       -3.33390572      -2.43634426       3.12931907
C       -1.69889539      -1.24560526       1.95297396
C       -0.56448704      -1.77486209       2.62457245
O       -0.66536713      -2.52080804       3.80380446
C        0.73103127      -1.51847640       2.12823665
O        1.83646001      -2.04053008       2.80716287
H        7.96256644       0.65231393      -1.90674280
H        4.98485613       0.82588581       0.04226129
H        3.82930779       2.88578812      -1.57850413
H        4.27963194      -0.70175271      -1.71404792
H        3.48099602      -0.04327003      -3.58814001
H        1.91603488       1.15727871      -1.01300524
H        1.15612876      -0.15711700      -2.52707959
H        2.97374321       0.22022693       2.20597021
H        3.27804020      -3.68766386      -0.11713653
H       -0.11644464       0.62377588      -0.39211345
H       -6.33553687       0.68616623       1.43638774
H       -8.05527548       1.86976934       0.14867076
H       -7.58986960       2.63513617      -2.16069499
H       -5.37818371       2.19977153      -3.18864997
H       -3.63953558       0.99197846      -1.93413765
H       -5.10656056      -1.17436264       1.84651119
H       -1.45698536      -2.49462640       4.42943979
H        1.75489164      -2.61737412       3.63535806
