35
Properties=species:S:1:pos:R:3 012268=T pbc="F F F"
O       -2.78997978      -2.35028319      -0.82711359
S       -1.84719304      -1.66193879       0.11930181
O       -1.71314434      -2.51101518       1.35293257
N       -0.29200151      -1.49782552      -0.64257413
C        0.65434090      -0.78280692       0.22904436
C        0.58904467       0.76127062       0.06310404
C        1.95695221       1.23157320      -0.46612652
C        2.75887671      -0.00915494      -0.54802199
C        4.09239077      -0.11322243      -0.95250409
C        4.69872392      -1.37859964      -0.96135780
C        3.96914467      -2.51403578      -0.56661541
C        2.63104134      -2.38687860      -0.16403881
C        2.04377490      -1.11763001      -0.16844251
C       -2.51184021      -0.08772937       0.54825964
C       -2.46326264       0.39497065       1.87463629
C       -2.96982037       1.67803287       2.19094024
C       -3.52661246       2.49354722       1.18575753
Cl      -4.14948280       4.09121487       1.55629898
C       -3.55412639       1.98312744      -0.10951234
N       -4.00572892       2.55337184      -1.23556859
O       -3.78091859       1.65880058      -2.16647114
N       -3.21910664       0.55722659      -1.73258216
C       -3.07170039       0.75343579      -0.41417265
H       -0.41665578      -0.99443001      -1.55122013
H        0.51867483      -1.06795320       1.29644018
H       -0.21081927       1.07860311      -0.63912540
H        0.38509516       1.23443333       1.04849274
H        2.43051792       1.95109670       0.23608238
H        1.85714857       1.68726984      -1.47486213
H        4.64942823       0.76519672      -1.25198219
H        5.73076418      -1.48045235      -1.27079221
H        4.44083816      -3.48804425      -0.57233302
H        2.06474587      -3.25677522       0.14303710
H       -2.02695786      -0.20906024       2.65935790
H       -2.92215203       2.03466427       3.21173105
