45
Properties=species:S:1:pos:R:3 012624=T pbc="F F F"
C        0.67820239      -4.58875301      -0.99591203
C        1.14588085      -3.21383577      -0.60290179
C        2.46802042      -2.99554381      -0.44425814
C        3.03347947      -1.65998313      -0.03794730
C        2.06689928      -0.51238684      -0.39354810
C        0.66796161      -0.82452196       0.20541029
C        0.12411460      -2.09404476      -0.50054523
C       -0.28827952       0.36985462       0.09378120
C        0.21192045       1.63895176      -0.25693996
O       -0.60558699       2.66904205      -0.41388949
C       -1.91211733       2.59930022      -0.20206965
C       -2.68425839       3.74329410      -0.41362215
C       -4.05430223       3.72058863      -0.17738886
C       -4.66764930       2.55357861       0.27122999
C       -3.92105045       1.38082981       0.48937819
C       -4.66492502       0.15379205       0.95699725
C       -2.51103932       1.39672087       0.25069458
C       -1.65560642       0.28080098       0.43951200
O       -2.09646009      -0.78563590       0.94209623
O        1.58298045       1.84955460      -0.42724638
C        2.57020505       0.90960755      -0.00520657
C        3.87450111       1.25843480      -0.74420940
C        2.79436897       1.07946504       1.51257093
H        0.93590009      -5.31532577      -0.19664035
H        1.16795971      -4.89838663      -1.94351819
H       -0.42163961      -4.60772310      -1.14876989
H        3.16246568      -3.82611120      -0.54118663
H        4.00091900      -1.52566306      -0.56386571
H        3.22643293      -1.68880073       1.05431273
H        1.95965862      -0.50918670      -1.50442723
H        0.77988455      -1.05900303       1.28743728
H       -0.74258450      -2.49980578       0.05636184
H       -0.21583011      -1.83431412      -1.52686126
H       -2.21686015       4.65770475      -0.75749756
H       -4.64497977       4.61276421      -0.34135268
H       -5.73667728       2.56797801       0.44534088
H       -4.51596450      -0.67844794       0.23746679
H       -5.75887610       0.33407886       1.02769866
H       -4.31179728      -0.14123131       1.96721598
H        3.76125112       1.09070575      -1.83660824
H        4.12659521       2.32936557      -0.58723246
H        4.72656233       0.65161515      -0.37240090
H        3.61283728       0.42452931       1.87655305
H        3.07579545       2.13082254       1.73638325
H        1.87168776       0.85532469       2.08560502
