36
Properties=species:S:1:pos:R:3 013272=T pbc="F F F"
O        1.30069035       3.04841086       1.34662968
C        0.90106236       2.54296132       0.26318300
O       -0.13528307       3.14785986      -0.44029058
N        1.50839466       1.35442584      -0.25684696
C        2.57852855       0.63614741       0.44913429
C        3.29375902      -0.35775968      -0.48688311
C        2.41960484      -1.57154708      -0.82779550
C        1.93188610      -2.27925475       0.44335442
C        1.17397971      -1.33128710       1.39596794
O        0.91334586      -2.03511628       2.58666522
C       -0.11364970      -0.93060635       0.78883520
C       -1.15591601      -0.58824630       0.28961328
C       -2.39132987      -0.16373024      -0.31127880
C       -2.94708826       1.07607758       0.03149885
C       -4.14328179       1.49383663      -0.56007028
C       -4.78650944       0.67566099      -1.49399048
C       -4.23351785      -0.56307360      -1.83876238
Cl      -5.04012149      -1.58808585      -3.01161673
C       -3.03561267      -0.98291512      -1.24811068
C        2.04214266      -0.08432926       1.70892621
H       -0.58214112       3.98637491      -0.08910624
H        1.20422658       1.03993334      -1.20554091
H        3.33836869       1.38129020       0.77424055
H        4.22700053      -0.71206101       0.00420087
H        3.58977574       0.15877567      -1.42568730
H        1.55091036      -1.26226138      -1.44698819
H        3.01692300      -2.28722706      -1.43280667
H        1.27834687      -3.13310134       0.15724403
H        2.81254920      -2.70501879       0.97412995
H        0.44842472      -1.41981888       3.21409959
H       -2.45592292       1.71796497       0.75308745
H       -4.57148041       2.45189427      -0.29507481
H       -5.71224596       1.00471466      -1.94857555
H       -2.60921565      -1.94155966      -1.51930648
H        1.46822508       0.62865579       2.33955290
H        2.91517135      -0.40798456       2.31836822
