32
Properties=species:S:1:pos:R:3 016171=T pbc="F F F"
C        3.16261915      -0.23014694      -0.90470817
C        2.80995059      -0.10141633       0.58613454
C        2.44013941       1.35531878       0.92284666
C        4.04707389      -0.48945744       1.41449305
S        1.48598597      -1.32702616       1.01002873
C       -0.09387295      -0.39763701       0.85549863
C       -0.64854281      -0.40575918      -0.57884013
O       -0.06227194       0.62750633      -1.32405715
C       -2.15166060      -0.22278323      -0.55786458
C       -2.71488502       1.02603123      -0.23683587
C       -4.10340252       1.18455848      -0.19514032
C       -4.94076247       0.09924160      -0.46528813
C       -4.39104939      -1.14760577      -0.77431811
C       -3.00291305      -1.31131015      -0.81721848
H        3.45838890      -1.27398041      -1.14544500
H        2.30255141       0.03611531      -1.54598109
H        4.00765212       0.44272411      -1.16694010
H        3.32472736       2.01804252       0.80483375
H        1.65813473       1.74343637       0.24013507
H        2.08929870       1.43484092       1.97392258
H        4.35113738      -1.53662284       1.19832070
H        3.82586883      -0.41040546       2.50089930
H        4.90709363       0.17600902       1.18288480
H       -0.04096148       0.62845159       1.26703368
H       -0.80811789      -0.94103921       1.51159797
H       -0.39683012      -1.38615420      -1.04749803
H       -0.25634902       0.43763300      -2.27939539
H       -2.07848897       1.87440735      -0.01751557
H       -4.53027753       2.14862732       0.04944676
H       -6.01542253       0.22345320      -0.43160481
H       -5.04094253      -1.98878468      -0.97819010
H       -2.59387127      -2.28626812      -1.05123520
