56
Properties=species:S:1:pos:R:3 016611=T pbc="F F F"
C        3.65762630      -0.28299481      -2.22005230
C        3.41566536      -0.48841370      -0.70840589
C        4.76438137      -0.86202801      -0.06023902
C        2.67162396       0.72170531       0.00082597
C        3.13747165       2.07748814      -0.58302103
C        2.94982614       0.77034270       1.52490635
Si       0.75405358       0.57135426      -0.19938450
C        0.20537242       0.20050331      -1.95370035
C        0.00980664       2.25968675       0.15575656
C       -0.06612600      -0.63765373       1.04031919
C        0.57271101      -2.03763455       1.13098292
C        0.16155600      -2.92401902      -0.04089883
C       -1.35969467      -3.07140893      -0.10038432
C       -2.10297145      -1.78788274       0.16200155
C       -1.55269387      -0.71458947       0.76791950
O       -2.31489202       0.39932155       1.15919976
Si      -3.95318955       0.80721855       0.68915739
C       -4.12230138       0.79851326      -1.17319076
C       -5.19573424      -0.34367090       1.48428136
C       -4.30427263       2.53781654       1.29252743
H        3.94857057      -1.24601185      -2.69190001
H        2.75555551       0.08320553      -2.73986746
H        4.47703501       0.44619799      -2.39645315
H        2.77993385      -1.39124932      -0.62805297
H        5.26352477      -1.66896889      -0.63893974
H        4.61585581      -1.25428556       0.96708042
H        5.44265023       0.01669330      -0.02724931
H        4.24644439       2.13877919      -0.58930040
H        2.76753229       2.92915440       0.02671228
H        2.76811087       2.22148320      -1.62015984
H        2.33176059       1.54990848       2.01996846
H        2.72968059      -0.19647196       2.01614980
H        4.01094046       1.02739598       1.72988563
H        0.51265114       1.03574575      -2.61556486
H       -0.90003233       0.11469503      -1.98155369
H        0.64886643      -0.74071582      -2.32656024
H       -1.07856384       2.24371270      -0.04703318
H        0.18451522       2.53513077       1.21548170
H        0.46212670       3.02258358      -0.50851804
H        0.06494235      -0.16402720       2.03702266
H        1.67374397      -1.98399618       1.19501360
H        0.23265164      -2.52187392       2.07340170
H        0.54056677      -2.50663577      -0.99149324
H        0.62103359      -3.92873937       0.08022642
H       -1.64949763      -3.46216207      -1.09899340
H       -1.68057055      -3.81475455       0.66083784
H       -3.16171021      -1.82092122      -0.02917244
H       -3.34908505       1.46106132      -1.61329464
H       -5.12887897       1.17196585      -1.45142849
H       -3.99329901      -0.22826441      -1.56869455
H       -5.11672865      -1.36354980       1.06023721
H       -6.21881268       0.04338886       1.30044717
H       -5.01051907      -0.38340145       2.57721137
H       -4.21141423       2.56935514       2.39738208
H       -3.57497631       3.24068532       0.84007951
H       -5.33282285       2.83123244       0.99849080
