72
Properties=species:S:1:pos:R:3 017131=T pbc="F F F"
C       -8.20945714       2.92019779       1.33895444
O       -6.79174534       2.81027802       1.38891629
C       -6.13568951       1.86771647       2.18915343
O       -6.79588861       1.09737249       2.93728542
C       -4.63997130       1.70844237       2.09798064
O       -4.00594226       2.96354511       2.03900901
C       -4.26039239       0.79431073       0.90480062
N       -4.52271773       1.47926430      -0.38244968
S       -5.52206455       0.51240015      -1.42832419
O       -5.60475588       1.16675474      -2.77754125
O       -6.90922994       0.42233630      -0.85785562
C       -4.84125825      -1.10369144      -1.61408240
C       -5.37484148      -2.18588690      -0.90002339
C       -4.82207076      -3.46243226      -1.04172122
C       -3.73238092      -3.67173034      -1.90013148
C       -3.16623997      -5.05173416      -2.06558771
C       -3.19660675      -2.58630671      -2.61247135
C       -3.74774183      -1.30865175      -2.46636825
C       -2.81911334       0.30848940       1.01252854
C       -1.73505735       1.20108349       0.91403843
C       -0.42153343       0.73652411       1.03037462
C       -0.16724575      -0.62670889       1.24933193
N        1.17368753      -1.12635532       1.36541814
C        2.18806842      -0.48987570       2.15854773
O        1.91750705       0.54436297       2.82698148
C        3.54203602      -1.13887959       2.27199158
C        4.64169158      -0.20589097       2.81102951
C        5.01169507       0.93069389       1.84417504
C        5.59920329       0.43167857       0.55731132
O        6.50327364      -0.44799130       0.57414560
O        5.17945236       0.99963479      -0.65083281
C        5.69725706       0.60923605      -1.92161342
C        7.13927918       1.02135296      -2.05745212
C        8.16063009       0.05694665      -2.10132225
C        9.49715261       0.45193263      -2.21183859
C        9.82326371       1.80980562      -2.27871143
C        8.81224041       2.77478908      -2.23426335
C        7.47382288       2.38368769      -2.12497634
C       -1.24064344      -1.52049479       1.31418326
C       -2.55441346      -1.05841465       1.21083087
H       -8.64508707       1.98699680       0.92127422
H       -8.61767396       3.10195002       2.35465175
H       -8.48726941       3.77170229       0.68363340
H       -4.29856892       1.21519307       3.03549160
H       -4.31465676       3.42919747       1.22108002
H       -4.91855663      -0.09963528       1.00448220
H       -3.63610326       1.66397469      -0.90738355
H       -6.21520762      -2.04370619      -0.23208333
H       -5.24724013      -4.28738844      -0.48436749
H       -2.92494797      -5.48306951      -1.07042288
H       -2.23708225      -5.04154775      -2.67321220
H       -3.91525965      -5.70208930      -2.56815143
H       -2.35632666      -2.72918805      -3.27847770
H       -3.32069933      -0.48113812      -3.01713351
H       -1.90074581       2.25371288       0.72877369
H        0.39806995       1.43541582       0.92133335
H        1.37409078      -2.08454330       0.99539294
H        3.44821997      -2.00222577       2.96132198
H        3.84477019      -1.54086937       1.28175092
H        4.31884364       0.22875407       3.78180310
H        5.54977035      -0.81170884       3.02056828
H        4.11834146       1.55352103       1.62889710
H        5.76183489       1.58730286       2.33524649
H        5.56462612      -0.48702151      -2.06301338
H        5.10605979       1.11628108      -2.71348022
H        7.92419584      -0.99950583      -2.04210917
H       10.28064349      -0.29565163      -2.23862482
H       10.85880508       2.11073208      -2.36215903
H        9.06599281       3.82547836      -2.28598709
H        6.70012379       3.14170163      -2.09200255
H       -1.05908355      -2.57610878       1.45944834
H       -3.36313870      -1.77430808       1.28403792
