54
Properties=species:S:1:pos:R:3 018277=T pbc="F F F"
C       -5.70271729      -0.46829507       1.08347565
O       -4.81661180      -1.56966458       0.90999102
C       -3.44166226      -1.45901411       0.64201605
C       -2.80371396      -0.21847158       0.50795579
C       -1.41618253      -0.12140330       0.24260857
C       -0.80180007       1.14504479       0.04592928
C        0.56912113       1.20844642      -0.30190897
C        1.37118619       0.03837583      -0.25660500
C        2.77965728       0.11940447      -0.36087978
C        3.58621334      -1.02593153      -0.32958338
O        4.98379428      -0.96187831      -0.45998071
C        5.72783827       0.23669778      -0.65525508
C        2.99906897      -2.27536191      -0.15157116
O        3.83938470      -3.40157469      -0.12209624
C        3.39680899      -4.74484211       0.04583581
C        1.60778693      -2.37399978       0.00774112
C        0.76645742      -1.23145741      -0.04447783
C       -0.64781249      -1.31572626       0.14381984
C       -1.32624218      -2.55870291       0.24083588
C       -2.70452919      -2.63071383       0.49642504
O       -3.38318484      -3.85614317       0.61096956
C       -2.77491530      -5.13882378       0.49616573
C        1.12101419       2.52667724      -0.70648014
O        1.97527594       2.62260698      -1.62992606
C        0.57544038       3.74324023      -0.03479250
C        0.89911945       5.09236828      -0.72441459
C       -0.38448179       5.93330094      -0.64094451
C       -1.41650673       4.92242085      -0.33102598
O       -2.65423560       5.15675984      -0.32959661
N       -0.86758809       3.65495016      -0.02828720
C       -1.64164988       2.42436207       0.14166745
H       -5.37697790       0.15248902       1.94475926
H       -5.73582544       0.14504466       0.15830176
H       -6.72236540      -0.85312199       1.28966843
H       -3.40983892       0.66744655       0.59992565
H        3.27062783       1.07579734      -0.41865078
H        5.40181794       0.74132982      -1.58930738
H        6.80405275      -0.01602417      -0.74569857
H        5.59520470       0.91469275       0.21414281
H        4.27438371      -5.42218506       0.00901002
H        2.89976816      -4.86314519       1.03179004
H        2.69943764      -5.02299758      -0.77249201
H        1.21707883      -3.35171004       0.20962151
H       -0.81607538      -3.48989587       0.09139005
H       -1.99283203      -5.26237563       1.27489868
H       -3.54804608      -5.92037541       0.64359094
H       -2.33386250      -5.26363000      -0.51530214
H        0.93799262       3.76920132       1.01633503
H        1.74612081       5.60509111      -0.21927672
H        1.15405826       4.94941683      -1.79730404
H       -0.60132861       6.44314002      -1.60420416
H       -0.32043453       6.67015744       0.18808694
H       -2.41975862       2.38828373      -0.65146986
H       -2.13753130       2.47071879       1.13457349
