49
Properties=species:S:1:pos:R:3 018773=T pbc="F F F"
C        6.97290228      -0.03353032       0.82950068
C        6.02050818      -1.20213122       1.05121413
C        4.96544131      -1.22736333      -0.01231139
O        5.14951252      -1.92021943      -1.04985495
N        3.77776494      -0.43491166       0.13615233
C        2.71183149      -0.38470293      -0.86994916
C        2.55896568       1.06318367      -1.36146230
C        1.26924568       1.22875287      -2.15831794
C        0.06513393       0.97414410      -1.25200072
C        0.16364480      -0.34523376      -0.51674910
C        1.42458498      -0.95744584      -0.29841479
C        1.46594090      -2.20048950       0.35253454
N        0.32749022      -2.78190867       0.80522608
C       -0.88539178      -2.19874680       0.64592758
C       -1.00077181      -0.96516105      -0.00715286
N       -2.30008151      -0.35937078      -0.13882918
C       -3.46011116      -1.03373033      -0.62408996
O       -3.44378142      -2.15405253      -1.20084684
C       -4.63394857      -0.24512130      -0.35840391
C       -5.97131614      -0.48260109      -0.66945224
C       -6.91784966       0.48277043      -0.29311774
C       -6.51099175       1.65708992       0.37525533
Cl      -7.70374622       2.85605604       0.83970633
C       -5.15275032       1.87043229       0.67244863
C       -4.22566807       0.89325765       0.30023899
C       -2.73180326       0.89567073       0.50435373
C       -2.37875958       0.90444571       1.99381353
H        6.41790622       0.93006089       0.85849792
H        7.48216539      -0.13329620      -0.15415287
H        7.74459676      -0.02459818       1.62833751
H        6.59490679      -2.15336538       1.03422115
H        5.54328782      -1.10857641       2.05089160
H        3.65829111       0.12343621       1.01084502
H        2.97968025      -1.00819665      -1.75087831
H        3.42607224       1.32602265      -2.00566382
H        2.55006924       1.76630355      -0.49877211
H        1.25708506       0.51999470      -3.01617955
H        1.21330769       2.26324617      -2.56190900
H        0.00019191       1.79317802      -0.50369311
H       -0.84942484       0.99623687      -1.88308437
H        2.40686997      -2.71715167       0.49255342
H       -1.76445808      -2.69185629       1.04057745
H       -6.27306173      -1.38291637      -1.18711250
H       -7.96395334       0.32298941      -0.52085960
H       -4.83050774       2.77085747       1.18098394
H       -2.29122328       1.77473505      -0.00717559
H       -2.82422057       0.02515423       2.50535024
H       -2.75719164       1.83256090       2.46980021
H       -1.27638490       0.87609815       2.12200354
