42
Properties=species:S:1:pos:R:3 020367=T pbc="F F F"
C        1.01942293       2.07893681      -3.05543051
C        1.29176467       0.94497311      -2.11202491
C        1.85740502       1.19150756      -0.85225712
C        2.14491429       0.12947846       0.01078248
C        1.88850804      -1.19034019      -0.38266167
S        2.24486261      -2.52060296       0.71561649
O        3.53749589      -2.23757923       1.42618339
O        2.40435922      -3.80382806      -0.05415783
O        1.00565394      -2.66092450       1.86342097
C       -0.12619621      -3.27662073       1.28424928
C       -1.39268901      -2.56827475       1.77007259
O       -2.51696416      -3.32386389       1.39903948
C       -1.46601614      -1.17498857       1.17803275
C       -1.95622402      -0.97396805      -0.12460760
C       -1.97059460       0.30205038      -0.69015713
C       -1.47496885       1.39713682       0.02925482
C       -1.46516223       2.67980468      -0.53905086
C       -0.93313143       3.75813214       0.17278649
C       -0.41618655       3.56667434       1.45706984
C       -0.42916275       2.29595068       2.03869905
C       -0.95761050       1.20391358       1.33283056
C       -0.95892290      -0.08014199       1.89822981
C        1.33269201      -1.43877938      -1.64490901
C        1.04180589      -0.37775431      -2.50710434
H        0.80363822       3.01628964      -2.50227945
H        1.90516032       2.24227856      -3.70178476
H        0.14025595       1.85351842      -3.69479919
H        2.06830999       2.20610392      -0.53531056
H        2.56607109       0.33765027       0.98693444
H       -0.13226882      -3.27549587       0.16909721
H       -0.15359025      -4.33622743       1.61697356
H       -1.35320567      -2.50814520       2.88327699
H       -3.28812617      -2.95679516       1.90556025
H       -2.31815298      -1.80910693      -0.70999443
H       -2.35159541       0.42982662      -1.69561291
H       -1.85169988       2.84350154      -1.53817579
H       -0.91351986       4.74140852      -0.27800655
H       -0.00233830       4.40468034       2.00244255
H       -0.02048822       2.16450561       3.03431115
H       -0.54926103      -0.23444592       2.89014254
H        1.12463363      -2.45183918      -1.96421291
H        0.62112221      -0.58859973      -3.48246914
