58
Properties=species:S:1:pos:R:3 020525=T pbc="F F F"
C       -6.57241305       1.77276207      -1.93145485
C       -5.66857411       2.89776972      -1.42695115
C       -4.32119189       2.38593880      -0.89220156
C       -4.46358523       1.62006112       0.43300079
C       -3.08788753       1.24923918       1.00231040
C       -3.22575429       0.44966019       2.30771256
C       -1.86746740       0.15980816       2.95928759
C       -1.03797840      -0.76196420       2.12079782
O       -1.18580386      -2.00969660       2.22630904
O       -0.14779487      -0.22167126       1.18773890
C        0.67151786      -1.01102169       0.32379255
C        1.16878457      -0.12197922      -0.82663424
C        2.17623086       0.89637698      -0.34934497
C        2.39831058       2.08519529      -1.07106354
O        1.65968609       2.35488454      -2.22387250
C        3.36610150       2.99975195      -0.62893415
C        4.12370962       2.72951873       0.51852799
O        5.08712306       3.63294494       0.96310400
C        3.91587004       1.54127330       1.22458911
C        2.95475041       0.62188402       0.79333493
O        2.77182972      -0.56589429       1.51507675
C        1.86447193      -1.59927800       1.11433259
C        2.57079170      -2.69005679       0.33031728
C        2.03717723      -3.98945258       0.33332134
C        2.64756417      -5.00985178      -0.39955679
C        3.79634708      -4.74689883      -1.15626963
O        4.40438178      -5.76712209      -1.88601858
C        4.33202517      -3.44910823      -1.17821181
O        5.47170904      -3.15355261      -1.92555231
C        3.71858937      -2.42896733      -0.44217064
H       -7.47288569       2.21131317      -2.40978673
H       -6.90630198       1.12937719      -1.09139319
H       -6.04034102       1.15276355      -2.68416796
H       -6.19829866       3.47587392      -0.63892197
H       -5.46876188       3.58957133      -2.27460393
H       -3.83590187       1.73739424      -1.65449384
H       -3.66017363       3.26613375      -0.72968348
H       -5.04667158       0.68833672       0.26515912
H       -5.00663057       2.25189575       1.16964516
H       -2.50829035       2.17886616       1.19766939
H       -2.53887927       0.64147130       0.25075060
H       -3.83724210       1.03449042       3.02932642
H       -3.75658461      -0.50772490       2.11020540
H       -1.31532514       1.11029586       3.12548484
H       -2.03418691      -0.30702873       3.95371004
H        0.05536270      -1.83071079      -0.11106686
H        0.29169122       0.38744854      -1.28297851
H        1.63899607      -0.75091369      -1.61262687
H        1.79937041       3.20519902      -2.75821877
H        3.53224941       3.91806431      -1.17964118
H        5.26481741       4.50237096       0.47292674
H        4.50536713       1.32871875       2.10837467
H        1.47640262      -2.06245629       2.04715921
H        1.14414149      -4.21188805       0.90429710
H        2.22426873      -6.00574393      -0.38095237
H        4.03686648      -6.71106023      -1.88590687
H        5.95339879      -3.85572955      -2.47369446
H        4.14502164      -1.43688228      -0.48188863
