41
Properties=species:S:1:pos:R:3 021781=T pbc="F F F"
C        1.55404795       2.25798100       1.14936234
N        0.33798472       1.72940634       0.49289039
C        0.25712978       2.21175478      -0.91438167
C        1.11941560       1.38995058      -1.90433212
C        0.98884924      -0.14320980      -1.72660256
C       -0.35501994      -0.69076991      -2.24081046
C       -1.50329396      -0.45272924      -1.29166025
C       -2.80817458      -0.65681584      -1.76873196
C       -3.91019148      -0.38818585      -0.95846605
C       -3.72279619       0.10300020       0.33089317
C       -2.43257474       0.29735499       0.82568706
C       -1.29830347      -0.03578106       0.05139212
C        0.11871181       0.25084094       0.60083941
C        0.17386590      -0.26566247       2.09346070
C        1.46532483      -1.02123535       2.44644884
C        1.66909395      -2.24413820       1.52629475
C        1.23280421      -1.99643837       0.06422576
C        1.19877062      -0.48818683      -0.25046287
H        1.50882473       3.36763618       1.17228135
H        1.62770675       1.94124154       2.20605228
H        2.48075071       1.97002934       0.61358623
H        0.55785258       3.28103175      -0.98024386
H       -0.80082246       2.19866664      -1.25085565
H        0.85359034       1.67535632      -2.94509168
H        2.18503984       1.67363260      -1.76408775
H        1.79828361      -0.61759565      -2.32567615
H       -0.58436215      -0.23755848      -3.23012487
H       -0.26142493      -1.78613185      -2.40434550
H       -2.97172620      -1.00623368      -2.78098522
H       -4.91193808      -0.53864103      -1.33977224
H       -4.57982562       0.34328845       0.94680863
H       -2.32141903       0.71412643       1.81832436
H       -0.64609298      -0.99339861       2.28720713
H        0.00363523       0.56192200       2.81349450
H        2.33737692      -0.33858922       2.36199392
H        1.41817782      -1.36192123       3.50343877
H        2.74468321      -2.52447919       1.54832992
H        1.09602239      -3.10682390       1.93106825
H        1.93928269      -2.51179655      -0.62236408
H        0.22692334      -2.44249638      -0.09212875
H        2.21381702      -0.11840143       0.00704381
