45
Properties=species:S:1:pos:R:3 021354=T pbc="F F F"
C        4.68254085       1.88510309       0.18813079
C        4.22713705       0.55368016      -0.43233300
C        5.46041891      -0.29197090      -0.79935889
O        5.07266239      -1.41600441      -1.54134146
C        3.29363441      -0.23057433       0.52319674
C        1.89840431       0.40774530       0.64799231
C        0.98450717      -0.33657601       1.64067876
C        0.57562394      -1.75956312       1.21407244
C       -0.25685922      -1.83930626      -0.07995210
C       -1.65920553      -1.20534338       0.04367945
C       -1.73861294       0.17593572      -0.62904284
C       -3.08793968       0.87253107      -0.39289935
C       -4.24528270       0.19657046      -1.14862591
C       -5.54392601       1.00905556      -1.06374623
C       -6.09381508       1.02906861       0.32948228
O       -5.94031842       2.04750338       1.05553043
O       -6.74803383      -0.09129138       0.83193894
H        5.40130196       2.39854899      -0.48567524
H        3.82399468       2.57214927       0.32902635
H        5.17619813       1.71323685       1.16866259
H        3.67844709       0.78019221      -1.37395508
H        5.98816288      -0.61316641       0.12753306
H        6.16322445       0.31678594      -1.41204135
H        5.90400671      -1.92649523      -1.72362105
H        3.76341537      -0.31119194       1.52827729
H        3.16820887      -1.25921127       0.12701705
H        2.00186310       1.44585620       1.02465162
H        1.42335412       0.47160939      -0.35191906
H        1.50511383      -0.40222604       2.62093169
H        0.07087013       0.26878268       1.81775660
H       -0.01044339      -2.21603014       2.04147936
H        1.48016541      -2.39200942       1.10069449
H        0.30675885      -1.42252577      -0.94101056
H       -0.39136783      -2.91968785      -0.30761114
H       -1.96387889      -1.12932037       1.11045548
H       -2.38577892      -1.88132110      -0.45565689
H       -0.94616529       0.83383081      -0.21902396
H       -1.55381555       0.07429228      -1.72094477
H       -3.30630758       0.89929063       0.69684186
H       -2.99588751       1.92397934      -0.74328497
H       -3.97010960       0.09464641      -2.22105932
H       -4.42713194      -0.82228446      -0.74438152
H       -5.37009977       2.04701767      -1.42315628
H       -6.30059188       0.54739228      -1.73368781
H       -7.11444305      -0.09870450       1.77629919
