39
Properties=species:S:1:pos:R:3 022153=T pbc="F F F"
C        2.41853224      -2.86998633      -0.97387237
C        2.13406916      -1.39319697      -1.24919794
C        1.95715177      -0.56543218       0.03902460
C        3.28834440      -0.37391275       0.77031279
O        1.46170827       0.71755055      -0.31303800
C        0.13014364       0.91065651       0.13797849
O       -0.73979543       0.04429948      -0.58341212
C       -1.64756164      -0.65121800       0.25567158
C       -2.10482785      -1.90188616      -0.50025899
C       -2.84420971       0.25974205       0.61254497
C       -3.80035110      -0.37815285       1.62091892
N       -0.28197397       2.31256236      -0.10045616
C        0.49823742       3.24262106       0.73268332
C       -0.16679981       2.68831467      -1.52087071
H        2.43438740      -3.42715743      -1.93421022
H        1.62581666      -3.30467603      -0.32844592
H        3.40633552      -2.99727168      -0.48524826
H        2.95141760      -0.96727223      -1.87119565
H        1.19825257      -1.33328324      -1.84579991
H        1.28420252      -1.12758015       0.73087075
H        3.13721450       0.29194327       1.64648862
H        3.67906579      -1.34328959       1.14300257
H        4.04069401       0.09245693       0.09885566
H        0.09910674       0.73953737       1.24422455
H       -1.15447631      -1.01421602       1.18760129
H       -2.69851607      -1.62253667      -1.39685091
H       -1.21670961      -2.48146892      -0.83193957
H       -2.71210613      -2.56141658       0.15372365
H       -2.46549147       1.20127108       1.06328070
H       -3.40432551       0.53209747      -0.30845398
H       -4.55271258       0.37295859       1.94167525
H       -4.34243728      -1.23197669       1.16465852
H       -3.24474228      -0.72594509       2.51759736
H        0.13511283       4.28276460       0.58692251
H        1.58142354       3.20068598       0.48200755
H        0.36488994       2.99942457       1.80864419
H       -0.55970233       3.71638244      -1.67409388
H       -0.77901451       2.01153944      -2.15372892
H        0.88964706       2.65506712      -1.86761432
