36
Properties=species:S:1:pos:R:3 022919=T pbc="F F F"
C        2.92727711       2.07820050      -0.11580165
C        2.87419013       0.61136310      -0.54478139
C        2.09414786      -0.27255224       0.46144963
C        0.65373043      -0.71039442       0.02637641
C       -0.22542097       0.56408633      -0.18932556
C       -1.70218619       0.27933337      -0.51321852
C       -2.48340742       1.55491550      -0.53552522
O       -2.59652197       2.20239543      -1.61230806
O       -3.04091906       2.04007020       0.65085268
C       -3.76998033       3.25977461       0.71137534
C        0.76380527      -1.52621175      -1.30556345
S       -0.56216960      -2.74739679      -1.56458969
C       -0.05937155      -3.70104138      -0.11217476
C       -0.42715767      -2.93983811       1.14960139
C        0.07457844      -1.51354029       1.20837156
O       -0.03209928      -0.94820845       2.28835017
H        3.44914027       2.17420511       0.86009488
H        3.48744306       2.66616123      -0.87310086
H        1.90705226       2.50305059      -0.02440930
H        2.45547798       0.55096268      -1.56882061
H        3.92091154       0.24166407      -0.60844694
H        2.69440602      -1.19281830       0.64287972
H        2.05413148       0.24406258       1.44682617
H       -0.17906181       1.19518064       0.72699878
H        0.18838891       1.17353239      -1.02134238
H       -1.78796165      -0.20663289      -1.50719156
H       -2.14957334      -0.39481190       0.24685340
H       -4.11097395       3.42931604       1.75322703
H       -3.12060296       4.10634475       0.40290881
H       -4.65770081       3.20555421       0.04616741
H        0.74679113      -0.84479739      -2.18191941
H        1.73435920      -2.06584583      -1.36161536
H        1.02995825      -3.92078228      -0.13262417
H       -0.59943748      -4.67123301      -0.12239760
H       -0.01750560      -3.49906123       2.01870475
H       -1.53373772      -2.92500710       1.25411836
