63
Properties=species:S:1:pos:R:3 023937=T pbc="F F F"
C        4.22341372       2.26847486       0.66146622
C        4.06625562       1.08200445      -0.33916327
C        3.55194275       1.71510511      -1.66855783
C        5.35625359       0.27059006      -0.55307625
C        5.64662673      -0.32695219       0.84008483
C        4.23561249      -0.61498068       1.38104480
C        3.30368203      -0.15441427       0.21649680
C        1.86001991       0.03994420       0.74737574
S        0.66762223       0.64817961      -0.48326267
O        0.47528822       2.10754783      -0.08667563
C       -0.98677322      -0.09849290      -0.23186650
C       -2.04564800       0.82770292      -0.71005772
O       -2.13434575       1.24186020      -1.89688174
N       -2.96172133       1.19088163       0.30563979
C       -4.19741844       1.94196276       0.08848908
C       -5.32392459       0.99838144      -0.23424482
C       -5.50948614       0.54123517      -1.54926080
C       -6.53032835      -0.36928917      -1.84061292
C       -7.36528329      -0.83564242      -0.82151814
C       -7.17962664      -0.39429647       0.49113140
C       -6.16065643       0.51656265       0.78663947
C       -2.61491946       0.53430746       1.55626898
O       -2.26954050       1.50639959       2.50646428
C       -1.39300857      -0.37200248       1.23679023
C       -1.78161735      -1.86797145       1.11773532
C       -0.52584699      -2.67051300       0.96040636
C       -0.14109587      -2.44317339      -0.28766185
C       -1.17612677      -1.50721696      -0.83893452
O       -2.32412812      -1.95695342      -0.17251876
C        3.48781355      -1.24497665      -0.88916722
O        2.51274450      -1.16940173      -1.89487013
C        4.89377230      -0.91139155      -1.44472169
H        4.60467265       1.99393470       1.66124609
H        4.92672769       3.02126106       0.24568265
H        3.24155849       2.76303425       0.81957574
H        2.68181817       2.37671106      -1.48531174
H        4.35239642       2.34911059      -2.10640696
H        3.25488273       0.99690950      -2.45015041
H        6.20817973       0.84408620      -0.97813203
H        6.18975978       0.39859948       1.48229522
H        6.25846643      -1.25377493       0.78300923
H        4.11054301      -1.69216517       1.62845767
H        4.04891148      -0.04761542       2.31813000
H        1.51792218      -0.92911113       1.15294622
H        1.86979011       0.75246132       1.59935005
H       -4.43778154       2.53316862       0.99880825
H       -4.05966271       2.67207123      -0.73837418
H       -4.86416741       0.88798950      -2.34725391
H       -6.67138141      -0.71624476      -2.85617327
H       -8.15397466      -1.54158734      -1.04857208
H       -7.82270949      -0.76098442       1.28048685
H       -6.02106737       0.84268171       1.81008574
H       -3.48433496      -0.06240179       1.91785608
H       -2.22946945       1.04076425       3.38202867
H       -0.57348469      -0.22053098       1.97208013
H       -2.46017651      -2.25084455       1.90911967
H       -0.08771530      -3.38112751       1.65252131
H        0.67019291      -2.93578463      -0.81142165
H       -1.27164962      -1.53799251      -1.94547666
H        3.46981669      -2.27072242      -0.45021199
H        2.63483577      -1.96956235      -2.46868394
H        4.86146369      -0.60944638      -2.51381422
H        5.57608534      -1.78635841      -1.36667734
