47
Properties=species:S:1:pos:R:3 023210=T pbc="F F F"
C       -2.97943715       1.09786972       1.89802063
C       -2.64287211       1.34121682       0.42456971
C       -3.72866648       0.87016597      -0.49101009
O       -4.87519917       1.38655945      -0.55098119
O       -3.32559658      -0.16759310      -1.32797359
C       -2.06738625      -0.68170386      -0.90960697
C       -2.37940494      -1.93682723      -0.05489714
C       -1.13394777      -1.05552398      -2.08037497
C        0.32186179      -1.29046469      -1.58522554
C        0.90193387      -0.09781158      -0.75133087
C        2.43843478      -0.22764959      -0.38187215
C        3.29458428       0.11409421      -1.63068264
C        2.83530469      -1.65706358       0.06207025
C        2.82348903       0.76838961       0.75821455
C        1.95841819       2.03177590       0.75358575
C        0.46822717       1.73140972       1.01257809
C       -0.03490056       0.35548314       0.44743776
C       -0.04852643      -0.68610680       1.60126609
C       -1.45867037       0.54627889      -0.18190749
H       -3.26784961       0.05267470       2.10741489
H       -2.12240630       1.38794698       2.53886255
H       -3.83823891       1.74093586       2.18543489
H       -2.49606266       2.43638439       0.28267153
H       -2.74019045      -1.68233009       0.95407642
H       -1.53072667      -2.63633871       0.03739097
H       -3.18541792      -2.52060790      -0.54919411
H       -1.13349585      -0.24074946      -2.83756699
H       -1.50577747      -1.97144617      -2.58934380
H        0.37096128      -2.23061913      -1.00369735
H        0.95180659      -1.45233003      -2.48415698
H        0.86281778       0.75347897      -1.47051347
H        4.37949534       0.02223372      -1.40567938
H        3.07112807      -0.57245755      -2.47313950
H        3.10726744       1.15460876      -1.97167998
H        2.69965359      -2.39003809      -0.76077662
H        2.25316715      -1.99595537       0.93885801
H        3.90846652      -1.68465052       0.35126693
H        2.74758567       0.29390901       1.75793813
H        3.89039483       1.07155893       0.67103801
H        2.06961793       2.54610845      -0.22582595
H        2.32947310       2.73288864       1.53244920
H       -0.10070217       2.57695882       0.56948104
H        0.27689562       1.79389183       2.10661809
H        0.02006644      -1.72290105       1.23580321
H        0.80005565      -0.54777947       2.29683640
H       -0.95877045      -0.60349779       2.22003497
H       -1.22686054       1.24562324      -1.02648126
