20
Properties=species:S:1:pos:R:3 023146=T pbc="F F F"
O        2.70498657      -1.01156408      -0.77727405
C        1.66808999      -0.38969940      -0.60773143
C        1.30485322       0.46068046       0.53952284
C        0.28101505      -0.41178945       1.22057859
C       -0.38222815      -1.25759527       0.09637750
C       -1.68764348      -0.51096098       0.39727452
C       -0.83372767       0.60138302       1.04350018
C        0.13684223       1.35820548       0.06307651
C       -0.06755060       0.82490883      -1.38408596
C        0.34935568      -0.66762099      -1.18473489
H        2.09333209       0.91311726       1.17780264
H        0.43854323      -0.83683893       2.23598719
H       -0.36223274      -2.35740104       0.25167924
H       -2.31118789      -0.22655215      -0.47328068
H       -2.29127130      -1.04699642       1.16367634
H       -1.15688011       1.09168881       1.98676236
H        0.25780687       2.45196707       0.21139851
H       -1.09862017       0.96390886      -1.76625823
H        0.61161583       1.35001253      -2.09623659
H        0.34490135      -1.29885360      -2.09803463
