33
Properties=species:S:1:pos:R:3 025721=T pbc="F F F"
C       -2.69857223       2.88838796       0.09422746
C       -2.40987646       2.20617782      -1.23783445
O       -1.74691340       0.96141007      -1.02902598
C       -0.39645464       0.85493312      -0.66958094
O        0.32433625       1.89070292      -0.63142441
C        0.22114090      -0.50546022      -0.35677785
C       -0.87327146      -1.58282447      -0.20679668
C       -1.31995397      -1.50219957       1.23908342
C       -0.05647390      -1.19211210       2.02477916
C        0.89427923      -0.46541594       1.05635149
C        2.30600733      -1.08447382       1.07679629
C        3.14865464      -0.44568224       0.00933663
O        4.29991848      -0.11778117       0.25138754
C        2.58155508      -0.22817401      -1.36668870
C        1.20328667      -0.89296039      -1.50690570
H       -3.26520262       3.82685358      -0.08172689
H       -3.30372236       2.21709127       0.73968565
H       -1.75057865       3.13634589       0.61568208
H       -1.79719636       2.86840881      -1.88738520
H       -3.37287132       2.01114278      -1.75489165
H       -0.45322255      -2.60051521      -0.37001012
H       -1.72488670      -1.46275683      -0.90984761
H       -2.05269302      -0.67350171       1.35864301
H       -1.78565509      -2.45450889       1.57390160
H       -0.29414192      -0.55628145       2.90560124
H        0.38326881      -2.14578847       2.39305142
H        1.00245269       0.58467430       1.41343340
H        2.25410135      -2.17778486       0.88123347
H        2.76826988      -0.92866599       2.07646447
H        2.50648951       0.86122286      -1.56517840
H        3.27082412      -0.66716144      -2.11994551
H        1.37218638      -1.99250893      -1.52048016
H        0.76491531      -0.63079368      -2.49515808
