57
Properties=species:S:1:pos:R:3 025181=T pbc="F F F"
F       -3.88065913       5.06463204       0.49329251
C       -2.85881437       4.18679824       0.33745314
C       -2.02163315       3.89120426       1.41535360
C       -0.97269884       2.98013831       1.25928165
C       -0.73982283       2.36000084       0.01647355
C        0.37194013       1.32479056      -0.09493227
C        1.06933626       1.29915534      -1.46891999
C        2.31858202       0.38780367      -1.44255932
N        2.32514865      -0.53198140      -0.27591439
C        3.37339961      -1.56362083      -0.41828826
C        4.74808414      -0.95452234      -0.31408527
C        5.11512232      -0.23718003       0.83722638
C        6.38954784       0.32788091       0.93869793
C        7.30857400       0.17372325      -0.10247139
C        6.95275251      -0.54233086      -1.24812221
C        5.67696726      -1.10399322      -1.35631263
C        0.99898791      -1.16185096      -0.11079120
C       -0.05935558      -0.11450899       0.33129641
C       -1.45576031      -0.53944401      -0.18449482
O       -2.48220847       0.14985014       0.50535766
C       -3.00277904      -0.62298761       1.56778165
C       -4.09249920      -1.53311649       1.06629615
C       -3.95496376      -2.92842596       1.15266228
C       -4.96442885      -3.76554125       0.66624607
C       -6.11406472      -3.21736378       0.09038015
C       -6.25643094      -1.83054504      -0.00034002
C       -5.25023060      -0.98978908       0.48569608
C       -1.60006940       2.65963628      -1.06112774
C       -2.64888747       3.57006995      -0.89859587
H       -2.18860707       4.36239320       2.37641493
H       -0.34556772       2.75131113       2.11274180
H        1.16297747       1.64537804       0.62334690
H        0.37101415       0.90790870      -2.23999221
H        1.36474151       2.32904724      -1.76568890
H        3.22125653       1.03772819      -1.39266782
H        2.36721290      -0.18133746      -2.40048242
H        3.28927421      -2.30955110       0.40249178
H        3.24922945      -2.12078081      -1.37487557
H        4.41260874      -0.11398134       1.65155485
H        6.66528830       0.88362220       1.82572493
H        8.29588478       0.60873272      -0.02158827
H        7.66630765      -0.66289186      -2.05247305
H        5.41579722      -1.65495976      -2.25130241
H        1.03686387      -1.95676534       0.66873723
H        0.69930222      -1.65396880      -1.06605392
H       -0.09272519      -0.12671596       1.44342356
H       -1.53677139      -0.29491625      -1.26304371
H       -1.57349320      -1.64839937      -0.12673260
H       -2.20787029      -1.18520836       2.11242975
H       -3.44717383       0.06971141       2.31131460
H       -3.06802082      -3.36760345       1.59153681
H       -4.85485870      -4.83959346       0.73358756
H       -6.89458555      -3.86650563      -0.28678532
H       -7.14618146      -1.40675010      -0.44873878
H       -5.36892484       0.08310393       0.40533814
H       -1.48113437       2.18236631      -2.02363244
H       -3.30498058       3.79014403      -1.73112522
