21
Properties=species:S:1:pos:R:3 025718=T pbc="F F F"
N        2.03307592      -1.04882398      -0.57491456
C        2.20415589      -0.22998699       0.61996696
C        2.00330556       1.24959156       0.34183120
C        0.94571905       0.47565714       1.12793996
C       -0.34256836       0.20606143       0.39116968
C       -0.91385559      -1.07599850       0.42774620
C       -2.13363022      -1.32327825      -0.20939661
C       -2.80349891      -0.28714667      -0.86778352
Br      -4.47106990      -0.62574792      -1.73486737
C       -2.25681333       1.00005050      -0.87969483
C       -1.03695562       1.24982669      -0.24343156
H        2.93668661      -1.02275369      -1.09941809
H        1.90430176      -2.03522960      -0.25517090
H        3.00429315      -0.48987506       1.34620095
H        1.75642205       1.49306563      -0.71471332
H        2.64038812       1.91193343       0.96478055
H        0.91796520       0.68994526       2.21703305
H       -0.41331319      -1.88301361       0.94835184
H       -2.55997374      -2.31790697      -0.18549006
H       -2.77918013       1.80815291      -1.37543544
H       -0.63545434       2.25547669      -0.24470414
