32
Properties=species:S:1:pos:R:3 026961=T pbc="F F F"
O       -4.82117480      -2.18069870       0.01578158
C       -4.71564773      -1.00236021       0.44983430
O       -5.75638534      -0.43273925       1.17655291
C       -3.45359394      -0.23091172       0.22618423
C       -2.46028723      -0.48907048       1.36652362
C       -1.20191592       0.38760888       1.26642748
C       -0.28276493      -0.02700913       0.10468816
C        1.02962786       0.78013208       0.09536921
S        2.13198167       0.29211029       1.45592718
C        3.49264575       1.14489971       0.61310455
C        3.33231073       0.92455408      -0.89072896
N        4.06113903      -0.26847936      -1.31053041
C        3.12544132      -1.19923095      -1.79656120
O        3.43875668      -2.33300951      -2.24444949
N        1.80292058      -0.72321333      -1.73857343
C        1.83563715       0.63960654      -1.20706441
H       -6.61103550      -0.94791430       1.35073621
H       -3.69740879       0.85220093       0.17369542
H       -3.01343181      -0.53689134      -0.74634923
H       -2.95946376      -0.26182927       2.33458848
H       -2.17113076      -1.56314973       1.38136556
H       -1.49513603       1.45458457       1.15509419
H       -0.64593224       0.29150441       2.22374246
H       -0.05419006      -1.11271643       0.18074637
H       -0.81160824       0.15471525      -0.85497205
H        0.78752274       1.85880696       0.22685817
H        4.47044376       0.76886014       0.98254506
H        3.42216644       2.23036101       0.84038472
H        3.70232254       1.80611462      -1.45854675
H        5.09496019      -0.40832921      -1.26219238
H        0.96822090      -1.21278031      -2.13133613
H        1.45500974       1.34427376      -1.97884541
