32
Properties=species:S:1:pos:R:3 027693=T pbc="F F F"
C        4.11852690       0.60340172      -0.33870215
C        3.07088115      -0.45681094      -0.00078563
C        1.81293118       0.16109847       0.64488457
C        0.86464833      -0.93480818       1.15391212
O        0.37898367      -1.69234740       0.05877611
C       -0.94847552      -2.12109657       0.28645403
C       -1.91953535      -1.03301609      -0.09112240
C       -2.71562385      -0.41282082       0.88624316
C       -3.58004110       0.62799371       0.53274012
C       -3.65397776       1.05712146      -0.79529582
C       -2.86387083       0.44574250      -1.77254281
C       -1.99836829      -0.59537040      -1.42332164
N        1.10526997       1.02324086      -0.31056211
C        0.14959783       2.00765844       0.09878863
O       -0.08253404       2.21758512       1.31883842
H        3.72034433       1.32645638      -1.08113302
H        5.01530711       0.11287710      -0.77241324
H        4.42366317       1.15070794       0.57844938
H        2.79664508      -1.00662663      -0.92762467
H        3.53116026      -1.18362051       0.70382870
H        2.13947014       0.76998122       1.51788049
H        0.05787360      -0.43821986       1.74248484
H        1.40919785      -1.60965803       1.84960762
H       -1.14285335      -3.00017973      -0.36351926
H       -1.10244448      -2.47647335       1.33277657
H       -2.66088228      -0.72730795       1.92096955
H       -4.18952867       1.10491470       1.28934802
H       -4.32152646       1.86467775      -1.06656400
H       -2.91861423       0.78161305      -2.79993741
H       -1.38249179      -1.05411396      -2.18701016
H        1.26770770       0.90611240      -1.33637154
H       -0.38144028       2.58128760      -0.64907646
