20
Properties=species:S:1:pos:R:3 027983=T pbc="F F F"
C        1.50654654       1.74552930       0.18207643
C        1.23473803       0.40337676      -0.49832740
C        0.49372627      -0.60150387       0.41177096
C        0.40530800      -1.97291274      -0.27191567
C       -0.88503793      -0.11559171       0.92976385
Si      -2.23356138       0.26848630      -0.34290905
Cl      -1.73951285       1.87980344      -1.58895550
Cl      -3.94702017       0.81756713       0.72701867
Cl      -2.73602678      -1.40014352      -1.50654373
H        0.56227706       2.30366974       0.34687037
H        2.02057132       1.59115151       1.15443669
H        2.16028139       2.36322185      -0.46907129
H        2.21809178      -0.03302813      -0.78082726
H        0.67540538       0.56559567      -1.44151263
H        1.12683417      -0.74925275       1.31560975
H        1.42170872      -2.41093966      -0.36918434
H       -0.21361591      -2.67339396       0.32820370
H       -0.02345939      -1.88241847      -1.29028956
H       -0.74744411       0.79091463       1.55425699
H       -1.29981016      -0.89013150       1.60952902
