39
Properties=species:S:1:pos:R:3 029990=T pbc="F F F"
C       -3.76574643       0.67100734      -0.38374300
C       -2.74137340      -0.30146465      -0.93053356
C       -3.21345200      -1.32437425      -1.94140808
C       -1.43819468      -0.24910546      -0.52741439
C       -0.42318127      -1.24395982      -1.10642320
C        0.98797683      -1.14220669      -0.56816447
C        1.37841807      -1.55444320       0.65818911
C        0.45987871      -2.36258994       1.54627443
C        2.77017670      -1.17937212       1.16398255
C        3.05135655       0.34577890       1.16705634
C        1.76312535       1.15290020       1.39970591
O        1.84604390       2.55009585       1.27541443
C        1.18960675       1.87621770       0.21297947
C        1.93173925       2.22369652      -1.08929686
C       -0.34245212       2.03228089       0.20747813
C       -1.04743725       0.73488479       0.52506908
O       -1.40516373       0.52318099       1.71814723
H       -3.45542284       1.71289342      -0.60886184
H       -3.86554917       0.54229298       0.71373215
H       -4.77131263       0.51497407      -0.82667731
H       -2.66247929      -1.20868448      -2.89912154
H       -3.06237435      -2.35028422      -1.54441166
H       -4.29768657      -1.21970350      -2.16496750
H       -0.36393947      -1.06420326      -2.20207212
H       -0.77993490      -2.28637780      -0.96626354
H        1.72480133      -0.68043561      -1.21534991
H        0.86741378      -2.45617116       2.57197655
H       -0.53668876      -1.88923312       1.63049650
H        0.33746680      -3.37986472       1.12291220
H        2.91836605      -1.56181374       2.19622981
H        3.52712215      -1.68683160       0.52596845
H        3.76561633       0.57805307       1.98897577
H        3.56342722       0.60697812       0.22230995
H        1.10543958       0.87547375       2.25239119
H        1.74357837       1.45642553      -1.86531959
H        1.54760405       3.19323385      -1.47372514
H        3.02383228       2.36009462      -0.94444727
H       -0.64296130       2.80413645       0.94727286
H       -0.68763990       2.38652026      -0.78836112
