46
Properties=species:S:1:pos:R:3 030659=T pbc="F F F"
C        0.57697944       3.93872137       1.30240703
O        0.16872442       2.81136234       0.57007240
P        1.47490911       1.71061937       0.44169971
O        2.76574178       2.29837540       0.97895018
O        1.69733214       1.28983881      -1.19615022
C        1.85322287       2.47383398      -1.93664775
C        1.03469327       0.19128959       1.39805547
C        1.35257565       0.44048797       2.88291727
N       -0.41792171      -0.02858676       1.25186430
C       -1.06835999      -0.33804290       0.00979857
O       -0.38688669      -0.57178150      -1.02419780
O       -2.46956185      -0.38790416      -0.02516393
C       -3.27995831      -0.66505135      -1.17700477
C       -2.99011245      -2.07883018      -1.71680914
C       -4.74718857      -0.59714770      -0.72685052
C       -3.04588294       0.39372773      -2.27189676
C        1.82298505      -1.04944086       0.95017860
C        1.25810103      -2.33697039       1.09464948
C        1.97965199      -3.48110700       0.74369008
C        3.28818523      -3.36794650       0.27568583
C        3.88407646      -2.11125314       0.17472819
C        3.16780957      -0.96274616       0.52392197
H        0.90965095       3.65853436       2.32602141
H        1.37348003       4.49643872       0.76231789
H       -0.29089290       4.62076403       1.41067901
H        2.04102109       2.20274850      -2.99562410
H        0.92693833       3.08853993      -1.91206738
H        2.72900069       3.06340572      -1.58531333
H        2.44075072       0.60910523       3.03275090
H        0.80116251       1.32899801       3.25773609
H        1.04987063      -0.43666251       3.49493250
H       -1.03809496       0.07915730       2.08692834
H       -3.70716005      -2.34338649      -2.52381618
H       -1.96756885      -2.14996381      -2.14000120
H       -3.08299001      -2.82691940      -0.90057837
H       -5.43517839      -0.80290149      -1.57550987
H       -4.93958544      -1.34397760       0.07339908
H       -4.97907016       0.41080434      -0.32010585
H       -3.76386791       0.25539288      -3.10900409
H       -3.18129647       1.41400048      -1.85326929
H       -2.02202691       0.32309096      -2.69223409
H        0.25671886      -2.46405748       1.48475900
H        1.52570427      -4.45844292       0.84539203
H        3.84663842      -4.25560892       0.00799933
H        4.90853362      -2.02643249      -0.16434106
H        3.67914644      -0.01407532       0.46505104
