31
Properties=species:S:1:pos:R:3 031968=T pbc="F F F"
C        4.13214821      -0.28154491      -0.55053335
O        2.76668560      -0.04631247      -0.87125475
C        1.71490840      -0.64335038      -0.17005164
O        1.95206917      -1.42759201       0.79008664
C        0.29635423      -0.30801102      -0.55679956
C       -0.11716556       1.10341330      -0.17091623
C        0.47781612       1.79970629       0.90278822
C        0.04039007       3.08329897       1.24306981
C       -0.99863764       3.68284659       0.52840144
C       -1.60684760       2.99792220      -0.52540952
C       -1.17367792       1.71437990      -0.87037930
N       -0.66023379      -1.30375136      -0.02787380
C       -1.02074612      -1.31088015       1.39738425
C       -1.15223492      -2.35105690      -0.89514463
O       -0.49245864      -2.67431469      -1.92088534
C       -2.43299952      -3.08407711      -0.60061239
F       -2.81369029      -3.84168983      -1.69458052
F       -2.25664023      -3.92594435       0.48124985
F       -3.44025766      -2.17888976      -0.32239818
H        4.77461599       0.29984394      -1.24309998
H        4.33896961       0.04380442       0.49106548
H        4.36813104      -1.36117622      -0.66087707
H        0.27885736      -0.33887893      -1.66924282
H        1.27384168       1.35368899       1.48441051
H        0.50461383       3.61176092       2.06573128
H       -1.33648445       4.67591317       0.79511150
H       -2.41764355       3.46015687      -1.07353342
H       -1.66407933       1.19347287      -1.68372001
H       -0.43498490      -0.56386069       1.96991351
H       -2.09701810      -1.07283584       1.51984441
H       -0.80360108      -2.30604181       1.83825563
