31
Properties=species:S:1:pos:R:3 031951=T pbc="F F F"
C        2.70145594       2.45890905      -0.49966790
O        2.20265640       1.18004578      -0.82636069
C        2.78042970       0.18558421       0.00496108
C        1.89541154      -0.07454210       1.24226801
C        0.46666270      -0.40205325       0.87940851
C        0.06406372      -1.73813361       0.72410642
C       -1.24940125      -2.04564817       0.36068870
C       -2.17994144      -1.01970643       0.14376333
C       -3.50149919      -1.31745793      -0.22364130
C       -4.41906207      -0.28521341      -0.43940537
C       -4.02617810       1.04765118      -0.29105691
C       -2.71304364       1.35772007       0.07439354
C       -1.78179301       0.33073602       0.29477043
C       -0.46084052       0.62953185       0.66064916
C        2.94891873      -1.07619766      -0.79281499
O        3.85567803      -1.89711733      -0.48881050
O        2.07570830      -1.36566129      -1.83793726
H        2.16363062       3.21394476      -1.10871859
H        3.78343985       2.53476136      -0.74555074
H        2.52777611       2.70507082       0.57064581
H        3.79935452       0.47228100       0.36423849
H        2.33367582      -0.90111286       1.84457685
H        1.91056232       0.82099562       1.89993951
H        0.77103235      -2.54363425       0.88005369
H       -1.53638922      -3.08422399       0.24651876
H       -3.82348901      -2.34502149      -0.34391365
H       -5.43722754      -0.51888662      -0.72269958
H       -4.74116592       1.84251214      -0.45989773
H       -2.42621697       2.39680269       0.18432995
H       -0.15019601       1.66219823       0.77303670
H        2.16598725      -2.22413441      -2.36787372
