49
Properties=species:S:1:pos:R:3 031624=T pbc="F F F"
C       -3.02911565      -1.93537679       1.59853267
C       -2.25132188      -1.01258123       0.71158974
N       -2.85666164      -0.29010375      -0.18206588
N       -1.94369443       0.29444679      -1.07233476
C       -2.33915973       1.17197751      -2.14200987
C       -3.50545340       1.94472573      -2.00916065
C       -3.91071690       2.80141306      -3.03684368
C       -3.16092173       2.88878352      -4.21300896
Cl      -3.67161985       3.96207158      -5.50302237
C       -2.00776227       2.11317904      -4.36265516
C       -1.59875825       1.25605712      -3.33608689
C       -0.63568182      -0.14484522      -0.72521239
O        0.39088607       0.04165420      -1.42694511
C       -0.75354834      -0.95073041       0.52144221
C        0.26561434      -1.91526138       1.17689094
C        1.51890770      -2.23372688       0.41094597
C        1.44777562      -2.71967797      -0.90499570
C        2.61371763      -3.08716163      -1.58361114
C        3.85236214      -3.00834914      -0.94109617
C        3.92475990      -2.57736059       0.38631327
C        2.76052775      -2.20949643       1.06739718
C        0.10115990      -0.48425411       1.71911101
C       -0.53699564      -0.24873849       3.05456068
O       -1.21634997      -1.07962677       3.71171241
N       -0.10785836       0.99366656       3.59590922
C        0.88815195       1.48254218       2.70320509
C        1.67661902       2.61144784       2.92351900
C        2.69942867       2.90416742       2.01094161
C        2.93755190       2.05470509       0.91633388
C        2.14567709       0.91364055       0.71435212
C        1.09245707       0.65389874       1.60477711
H       -3.76538059      -2.49961389       0.98844569
H       -2.37708594      -2.67306289       2.10242507
H       -3.57748437      -1.34300472       2.36005041
H       -4.09544981       1.89369937      -1.10288265
H       -4.80722838       3.39637190      -2.91733237
H       -1.43139809       2.16732246      -5.27753478
H       -0.72419705       0.64342717      -3.49689304
H       -0.15260839      -2.71588146       1.81840823
H        0.49165801      -2.81120871      -1.40513261
H        2.55585895      -3.44246274      -2.60429068
H        4.75385136      -3.29539458      -1.46672699
H        4.88184951      -2.53523203       0.88982825
H        2.82621505      -1.89234403       2.10096943
H       -0.33725064       1.37233159       4.54158611
H        1.51394837       3.24004073       3.78937802
H        3.32359116       3.77514322       2.16283047
H        3.74819292       2.27348486       0.23340782
H        2.38294105       0.25529762      -0.10502176
