37
Properties=species:S:1:pos:R:3 032136=T pbc="F F F"
O       -1.59595795       1.18768522      -1.89963481
C       -2.04379003       0.83968494      -0.77276460
N       -1.36328841       1.25663609       0.42572754
N       -0.28916963       2.17244071       0.41255131
C        0.96441005       1.47301329       0.74199068
C        1.43872862       0.59592640      -0.44721964
C        2.62156173      -0.27069324      -0.09578250
C        2.45136104      -1.39858921       0.72471541
C        3.54870109      -2.19667246       1.06226618
C        4.82248684      -1.87507947       0.58468407
F        5.88548054      -2.64957186       0.91384618
C        5.00026392      -0.75423907      -0.23154323
C        3.90544066       0.04634990      -0.57177430
C        2.01743936       2.51746976       1.16140678
F        3.12998908       1.89802565       1.70164468
F        1.48241318       3.35542291       2.12417649
F        2.40577054       3.28125096       0.07433572
C       -3.25076137      -0.01909361      -0.70835011
C       -3.58970321      -0.83810621      -1.80191470
C       -4.72717728      -1.64986960      -1.75437710
C       -5.54239939      -1.64790602      -0.62075954
C       -5.22427649      -0.83047178       0.46580923
C       -4.08723911      -0.01721310       0.42443225
H       -1.63401115       0.83343475       1.34119805
H       -0.21275914       2.63437195      -0.52358246
H        0.78834763       0.81608680       1.62455318
H        0.61437020      -0.07716229      -0.76359891
H        1.67231958       1.23829121      -1.32443674
H        1.46978501      -1.65770189       1.10211660
H        3.41050879      -3.06401224       1.69489986
H        5.98671359      -0.50373521      -0.60001800
H        4.05957203       0.91486317      -1.19998168
H       -2.96883739      -0.85938974      -2.68907976
H       -4.97631089      -2.28119372      -2.59754544
H       -6.42333563      -2.27580136      -0.58630792
H       -5.86331797      -0.82157988       1.33940977
H       -3.88332845       0.62712824       1.26890747
