41
Properties=species:S:1:pos:R:3 033294=T pbc="F F F"
C        5.37913504       0.54057741       1.80117299
O        4.92046180      -0.80527915       1.72423388
C        3.86766083      -1.24260409       0.90451780
C        3.16452567      -0.36061596       0.05929619
C        2.10612891      -0.82553414      -0.73831029
C        1.36068164       0.11647453      -1.64796446
N       -0.09175404       0.00740140      -1.42217997
C       -0.62514919       1.05413959      -0.52622550
C       -0.10566115       0.88610272       0.90941790
C       -2.14024613       0.99392167      -0.51525807
C       -2.80639068      -0.22413425      -0.28937380
C       -4.20286080      -0.27266272      -0.25851899
C       -4.95603782       0.89336208      -0.45842001
C       -6.45348721       0.84764117      -0.38498882
C       -4.29509565       2.11461954      -0.65558399
C       -2.89834128       2.16459474      -0.68674967
C        1.77046059      -2.18686666      -0.70938223
C        2.46416911      -3.06600086       0.12321906
C        3.50714144      -2.60247647       0.93058252
O        4.17596963      -3.50962703       1.75231718
H        6.21442598       0.59754803       2.52873252
H        5.74889093       0.87541666       0.80903545
H        4.55926900       1.20417484       2.14873501
H        3.42985479       0.68729238       0.02207213
H        1.59757455      -0.17805503      -2.69482451
H        1.71764876       1.16478965      -1.53255398
H       -0.55787773       0.12140103      -2.35398234
H       -0.30694583       2.05606380      -0.89647819
H        0.96804326       1.15620710       0.96700718
H       -0.65271744       1.56362106       1.59996075
H       -0.23654608      -0.16203532       1.25402688
H       -2.24303683      -1.13583936      -0.13324422
H       -4.69640032      -1.21955445      -0.07721904
H       -6.77664401       1.00972942       0.66446118
H       -6.83294017      -0.13663115      -0.73326006
H       -6.90148505       1.63497715      -1.02800149
H       -4.86098848       3.02918621      -0.78375543
H       -2.40971927       3.11867664      -0.84039098
H        0.96844207      -2.56673214      -1.33033314
H        2.19116800      -4.11353861       0.14101954
H        4.93867317      -3.22973139       2.35719100
