41
Properties=species:S:1:pos:R:3 033481=T pbc="F F F"
N       -5.91645076       2.53404039      -0.78138257
N       -4.98000205       1.72848537      -0.11810108
C       -5.34503308       0.72779023       0.62142132
N       -4.37225778      -0.08212149       1.28976083
C       -2.93631315       0.17437982       1.17161927
C       -2.13174220      -0.83896253       1.99751465
C       -0.62804096      -0.50715476       2.05767146
C        0.11146205      -0.63863388       0.71047694
N        1.51924563      -0.23707402       0.90284909
C        2.21014774       0.14835148      -0.34412526
C        3.43025305       1.02402307       0.01397018
C        4.02963082       1.77730383      -1.18717499
C        4.83072343       0.88266656      -2.08211517
O        5.91683841       0.38994994      -1.67502705
O        4.37264525       0.59203848      -3.36327934
C        2.62084816      -1.06871488      -1.13506395
O        3.43447544      -1.90135932      -0.65079918
O        2.08948975      -1.27836557      -2.40375064
C        0.01451050      -2.04836349       0.18198828
O       -0.58835089      -2.27414364      -0.90137600
O        0.57819220      -3.10376217       0.89344994
H       -5.58592013       3.33089992      -1.36824609
H       -6.94278199       2.35396307      -0.70115022
H       -6.39605857       0.49294765       0.74151959
H       -4.71914712      -0.87879389       1.87091983
H       -2.64979182       0.09987489       0.10160117
H       -2.72016403       1.20344281       1.53263704
H       -2.28749198      -1.86178281       1.59213654
H       -2.52103385      -0.83342393       3.03922641
H       -0.15090701      -1.18380124       2.80073910
H       -0.50311468       0.52980161       2.44033668
H       -0.37244886       0.05751708      -0.00845638
H        2.05572084      -0.97741068       1.41542916
H        1.52998302       0.76928948      -0.96949024
H        3.09693529       1.79091855       0.74767759
H        4.21296041       0.41768638       0.52169068
H        4.70138098       2.57725042      -0.80763534
H        3.22428303       2.27413966      -1.77011509
H        4.89929033      -0.01758478      -3.97731256
H        2.35115880      -2.09127851      -2.94835179
H        0.51687579      -4.05402908       0.54831720
