45
Properties=species:S:1:pos:R:3 034019=T pbc="F F F"
C       -3.07835766      -3.27983903       1.02147340
C       -2.60212303      -2.81721871      -0.35039638
O       -1.54520653      -1.86895608      -0.22141727
C       -1.74507183      -0.53196540       0.14270551
O       -2.91316746      -0.10287225       0.34982140
C       -0.56585846       0.34890787       0.33210906
C       -0.61548385       1.67882362       0.48417539
C       -1.81004870       2.51423484       0.24621055
C       -2.23881744       3.42049024       1.22878441
C       -3.34765176       4.23992200       0.99488878
C       -4.02557142       4.17028952      -0.22540922
C       -3.59226272       3.28516283      -1.21638911
C       -2.48402344       2.46425408      -0.98653471
S        0.92851695       2.47268620       0.91229608
C        1.80657060       0.87632582       0.81875502
C        0.80188941      -0.25114140       0.45647937
C        1.35843393      -0.78070471      -0.89521366
C        1.89836222       0.49861914      -1.52845936
C        2.81392458       0.84340351      -0.35774274
C        3.55488994      -0.45719564      -0.25179604
C        4.82260192      -0.74950960       0.24650757
C        5.18823908      -2.10242872       0.36534868
C        4.27276568      -3.12316769       0.02688822
C        2.98385003      -2.79986997      -0.43372882
C        2.66291106      -1.45251132      -0.58286368
H       -3.50729860      -2.42876811       1.59029078
H       -3.86033915      -4.05894433       0.90196547
H       -2.22762616      -3.70784747       1.59280679
H       -2.22046111      -3.69678399      -0.91031708
H       -3.44677816      -2.38118840      -0.92695678
H       -1.72098987       3.48592477       2.17786493
H       -3.67998597       4.93070665       1.75896709
H       -4.88283025       4.80607959      -0.40513563
H       -4.11201243       3.23872195      -2.16460324
H       -2.14853700       1.79343886      -1.76813896
H        2.30964191       0.67842116       1.79119955
H        0.79377144      -1.04676040       1.23571078
H        0.66747705      -1.37081641      -1.53312586
H        2.45770707       0.31128746      -2.47619547
H        1.11368846       1.26308542      -1.72417576
H        3.45015488       1.74392644      -0.49187587
H        5.49973019       0.04004512       0.54453102
H        6.16951943      -2.36276091       0.74008670
H        4.55676194      -4.16081724       0.14409588
H        2.25909519      -3.57268931      -0.65348683
