64
Properties=species:S:1:pos:R:3 034010=T pbc="F F F"
C        4.37515759      -4.17625218      -1.13162574
O        2.97372215      -3.94747125      -1.02963027
C        2.38468350      -2.78095300      -0.51026532
C        3.16193701      -1.72755020      -0.00610714
C        2.56544792      -0.56955512       0.52136327
O        3.35067893       0.47163813       1.04452938
C        4.76939903       0.45396089       1.15291013
C        1.15430483      -0.44703813       0.52799952
C        0.45242372       0.82290236       1.04230265
C        0.59578612       1.13496675       2.54450432
C        1.22002343       0.05026227       3.43482221
C        1.34650893       2.45868001       2.58673008
N        1.04051949       3.16001100       1.34025765
C        0.91432144       2.11121315       0.32170655
C       -0.03942666       2.51806621      -0.82113486
O        0.52091804       3.58598395      -1.58516169
C        0.28024688       4.94018590      -1.32559251
C        1.01143278       5.97740023      -2.10767961
O       -0.54661309       5.29599579      -0.44240337
C        0.37277799      -1.51221836       0.02015205
O       -1.02091365      -1.39505047       0.00575061
C       -1.73974648      -1.07350921      -1.15121112
O       -1.13791065      -0.96365635      -2.25372415
C       -3.20777581      -0.88783201      -1.06239308
C       -3.88936501      -1.46950134       0.02091497
C       -5.27193687      -1.33502550       0.15464236
C       -6.01182704      -0.60717967      -0.78945817
N       -7.43785572      -0.46370374      -0.65337565
O       -8.03999095      -0.97202986       0.31595263
O       -8.16219408       0.23900153      -1.59031710
C       -5.33659572      -0.01184981      -1.86682574
C       -3.94851066      -0.13992847      -2.00961866
Br      -3.13947375       0.79803237      -3.47816664
C        0.98291418      -2.68203885      -0.48214732
C        0.16162568      -3.80952010      -0.98955053
C       -1.01429360      -4.33485074      -0.22230121
O        0.44766304      -4.33787649      -2.09729885
H        4.83921520      -4.16104589      -0.12290447
H        4.84145305      -3.40718378      -1.78218941
H        4.54630154      -5.17390308      -1.58460947
H        4.23746164      -1.81166142      -0.01953353
H        5.22881738       0.37763720       0.14569750
H        5.09311461      -0.39755394       1.78803566
H        5.10588848       1.39903736       1.62646002
H       -0.64218837       0.73183588       0.87323484
H       -0.42307004       1.32807274       2.95230909
H        0.69488369      -0.91602304       3.28328799
H        2.30008107      -0.08487097       3.23435006
H        1.10878328       0.33954541       4.50130406
H        2.44360909       2.29844995       2.64978508
H        1.03735167       3.06358992       3.46687998
H        0.10864164       3.61660645       1.47651232
H        1.91175018       1.97510700      -0.14293764
H       -0.16564908       1.64788430      -1.50080079
H       -1.04994613       2.78383426      -0.43474090
H        0.29077031       6.71536641      -2.51770396
H        1.56205555       5.50578237      -2.94979837
H        1.73464201       6.49880476      -1.44705280
H       -3.35332855      -2.04309990       0.76667827
H       -5.76214824      -1.80255977       0.99900809
H       -5.88656166       0.56723389      -2.59728981
H       -1.08344189      -5.43635903      -0.34300943
H       -0.90910231      -4.10825493       0.85890504
H       -1.94744705      -3.87998181      -0.60842707
