47
Properties=species:S:1:pos:R:3 034979=T pbc="F F F"
C        4.02512612       2.69880377      -0.94234125
C        3.41036148       2.23568053      -2.24198835
C        2.66267216       3.21855277      -3.10506756
C        3.51397121       0.95633968      -2.66136408
C        4.22852885      -0.12686137      -1.89304764
O        3.59410294      -0.36971123      -0.63733675
C        2.30959059      -0.91107016      -0.46811441
C        1.54539179      -1.40378999      -1.54100772
C        0.26498869      -1.91643275      -1.31726855
C       -0.28514371      -1.93614390      -0.02297066
C       -1.68232620      -2.49276269       0.19216490
C       -2.68480562      -1.50744497       0.87443894
S       -4.40624093      -2.05980018       0.57730137
S       -5.45474592      -0.48089700       1.65311951
C       -4.01937896       0.44245269       2.32522858
C       -3.20044666       0.90114791       1.16572445
O       -3.08887003       2.12572841       0.88643863
N       -2.57755327      -0.11483490       0.36160995
C       -2.31023464       0.20209053      -1.04822572
N       -3.20105003      -0.47405398       3.11769318
C       -3.08941913      -0.36612124       4.57204170
C       -2.53549792      -1.51424171       2.38958709
O       -1.96807966      -2.46006782       3.00332394
C        0.49713828      -1.47173819       1.04893165
C        1.77799340      -0.96046204       0.82378960
H        5.11712723       2.49945096      -0.94452535
H        3.87968690       3.78832539      -0.78968752
H        3.55281509       2.17107402      -0.08808827
H        2.64309037       4.23164609      -2.65230491
H        3.15026596       3.29109723      -4.10031223
H        1.61392181       2.87780499      -3.23842877
H        3.06379078       0.67450747      -3.61000973
H        4.25865109      -1.06384808      -2.48891028
H        5.27999551       0.17988540      -1.71414808
H        1.92916528      -1.39914939      -2.55116166
H       -0.30143811      -2.28948997      -2.16148391
H       -1.60220891      -3.43710312       0.77159447
H       -2.10877704      -2.80780440      -0.78487684
H       -4.37424132       1.30572211       2.92849724
H       -3.10906169       0.85877352      -1.45495454
H       -1.33468122       0.72484349      -1.13264190
H       -2.29984534      -0.70550034      -1.68134325
H       -3.46667959      -1.29655911       5.04604892
H       -2.02604275      -0.21616942       4.85379881
H       -3.68207933       0.48944593       4.95841912
H        0.12967045      -1.49633231       2.06193388
H        2.36080196      -0.59498265       1.65992399
