24
Properties=species:S:1:pos:R:3 034738=T pbc="F F F"
O       -1.97726435      -1.24606889      -1.83805977
C       -0.84124409      -1.57022396      -1.39948150
O        0.21396936      -1.77011297      -2.28411458
C       -0.61785567      -1.71759005       0.07751154
C       -0.16323551      -0.41201836       0.75895110
C       -1.21632608       0.66307961       0.66681058
C       -2.18843309       0.91813584       1.61156614
C       -2.94192275       1.92397969       1.04856194
O       -2.44078823       2.20882049      -0.13124482
N       -1.40633900       1.46614050      -0.39890797
C        1.16341498       0.06218466       0.22380071
C        2.39019959      -0.12934339       0.83277825
C        3.32211628       0.43309099      -0.01332378
C        2.60496664       0.92572928      -1.08287959
Cl       3.28376938       1.74614103      -2.47257940
O        1.32497055       0.69063447      -0.91934937
H        0.08266301      -1.66089784      -3.28252118
H       -1.55674653      -2.07412286       0.55549567
H        0.14942544      -2.50424028       0.24643847
H       -0.02268522      -0.64365908       1.83864513
H       -2.33418237       0.43470855       2.56841479
H       -3.80535383       2.40561815       1.48716212
H        2.58341222      -0.62396782       1.77549350
H        4.39346928       0.47398223       0.13083201
