18
Properties=species:S:1:pos:R:3 035613=T pbc="F F F"
N       -1.82767899       1.32777749      -0.02500465
C       -0.70219404       0.51294447      -0.48918675
C        0.62283015       1.25700202      -0.35540331
C        1.68340518       0.19020239      -0.08540695
C        0.94579047      -1.12479413       0.16256797
C       -0.52573406      -0.76305733       0.33000111
O       -1.35986329      -1.78118166      -0.15632653
H       -1.72554531       1.52282123       0.99796964
H       -2.70627955       0.77371079      -0.14754032
H       -0.85579346       0.25086691      -1.56145849
H        0.85224139       1.82557749      -1.28298089
H        0.59099460       1.96774002       0.50035519
H        2.36495427       0.08965427      -0.95845457
H        2.28704147       0.46769952       0.80657850
H        1.33342316      -1.64027426       1.06812718
H        1.07768548      -1.79377831      -0.71718990
H       -0.73797439      -0.56363062       1.40717239
H       -1.31730307      -2.51928028       0.50618039
