42
Properties=species:S:1:pos:R:3 035296=T pbc="F F F"
C        0.73312562       3.67616974      -1.93346291
C        0.84060837       2.25744975      -1.45271736
C        1.43131657       1.90997300      -0.28713382
C        2.02593644       2.95670001       0.62653439
C        1.49001955       0.44735352       0.11872855
O        0.17366544      -0.10224588       0.06587746
C       -0.06954693      -1.47704653       0.15663700
C       -1.36049705      -1.94432554       0.46011146
C       -2.48212113      -1.00738599       0.71295303
C       -3.71943370      -1.19330346       0.07063140
C       -4.77848514      -0.31171968       0.30829731
C       -4.61484928       0.75840217       1.19137404
C       -3.39272015       0.94717961       1.84127518
C       -2.33081378       0.06830610       1.60726456
C       -1.57430272      -3.32783354       0.52836195
N       -0.55109566      -4.19648662       0.31525348
C        0.70506782      -3.76768267       0.01263222
O        1.61386646      -4.61839382      -0.18778539
C        0.97485444      -2.38637541      -0.08289897
C        2.30329387      -1.84795351      -0.47616513
O        3.28220834      -2.62673703      -0.64220151
C        2.45643844      -0.36988581      -0.77480731
C        3.91070150       0.09365332      -0.57999275
H        0.15703409       4.28468263      -1.20533867
H        0.20444771       3.69987738      -2.90926946
H        1.74508709       4.11154837      -2.07007633
H        0.41294035       1.48454212      -2.08591368
H        2.81783179       3.52136071       0.09129829
H        2.48663625       2.49962514       1.52666293
H        1.23475558       3.65881426       0.96341287
H        1.83981897       0.36222819       1.17175750
H       -3.86055354      -2.01189783      -0.62435837
H       -5.72608489      -0.45746116      -0.19400128
H       -5.43583587       1.43958277       1.37417632
H       -3.26919283       1.77254224       2.53048415
H       -1.39742458       0.21935511       2.13521844
H       -2.55631825      -3.71612649       0.77119648
H       -0.74253456      -5.22189747       0.38234933
H        2.18485515      -0.22129408      -1.84262164
H        4.58978821      -0.47046344      -1.25419536
H        4.23351811      -0.06282046       0.47177238
H        4.01399390       1.16999029      -0.83132078
