47
Properties=species:S:1:pos:R:3 035933=T pbc="F F F"
C        7.08798539       1.11390933       0.58441449
O        6.23183968       0.33885399      -0.24853537
C        4.84541070       0.52903642      -0.35740597
C        4.16647660       1.53017235       0.36229577
C        2.78445936       1.68359395       0.22733726
C        2.05238431       0.83316421      -0.61568218
C        0.55762115       1.00625689      -0.77004317
C       -0.23842912      -0.26492386      -0.36396172
C       -1.75985920      -0.11218015      -0.41795880
C       -2.38576722       0.76841245      -1.32336242
C       -3.78145021       0.83278283      -1.41673571
O       -4.38517905       1.72245854      -2.30446547
C       -4.58062848       0.00342995      -0.62445363
O       -5.97572884       0.10513598      -0.74415533
C       -6.90815635      -0.67470459      -0.00248057
C       -3.96776229      -0.90155694       0.25840385
C       -2.57004592      -0.97991447       0.35281743
C       -1.97575698      -1.94388573       1.35218433
C       -0.45113410      -2.08667451       1.22263643
N        0.20879081      -0.79543998       0.94985291
C        0.02753336       0.15317403       2.07050305
C        2.73362011      -0.15150319      -1.34980241
C        4.12039302      -0.30786798      -1.21697976
O        4.78772731      -1.29509645      -1.94031287
H        8.12882580       0.74603088       0.47645474
H        7.05460221       2.18094348       0.27860106
H        6.78274383       1.01051040       1.64713377
H        4.69791647       2.19769222       1.02662728
H        2.28715303       2.46891020       0.78274752
H        0.37783618       1.23502245      -1.84127684
H        0.19523995       1.87844092      -0.18321599
H        0.00409139      -1.02688234      -1.13799676
H       -1.80679568       1.41090888      -1.96873177
H       -3.83811208       2.33813279      -2.89488146
H       -6.76488230      -1.75353297      -0.22343899
H       -6.78388252      -0.48649881       1.08488571
H       -7.93767378      -0.38574137      -0.29729952
H       -4.57073115      -1.55136441       0.87907198
H       -2.44007711      -2.94617811       1.22616621
H       -2.22213300      -1.58752274       2.37577130
H       -0.03882971      -2.53784014       2.15169083
H       -0.21886256      -2.80290172       0.40325675
H        0.76581972       0.97415653       2.00185677
H       -0.99151917       0.59474133       2.08299157
H        0.21085187      -0.35045791       3.04411772
H        2.19000357      -0.79644123      -2.02844572
H        4.29407100      -1.91676138      -2.57019628
