27
Properties=species:S:1:pos:R:3 036189=T pbc="F F F"
C        2.72721953      -1.07424583       0.45595691
C        1.52245018      -0.31482719      -0.01139197
C        1.52932518       1.04847468      -0.09416513
C        0.25539991       1.77308154      -0.57421117
O       -0.16624714       2.69131947       0.39752520
C       -0.87190535       0.71926754      -0.87979434
C       -0.19353114      -0.36084335      -1.74852088
C        0.22671362      -1.02848361      -0.42525861
C       -0.97894969      -0.33493771       0.25981767
C       -2.27834186      -1.17380065       0.15638157
C       -0.81759223       0.12682504       1.73538901
H        2.98808745      -0.76225788       1.48904116
H        3.58516065      -0.86748519      -0.21766753
H        2.52711308      -2.16601258       0.45392416
H        2.41351030       1.61975802       0.17229753
H        0.50601559       2.32074098      -1.51137098
H       -0.87530219       3.24333260      -0.02427250
H       -1.82586252       1.12457207      -1.28152658
H        0.63781497      -0.01372265      -2.40582297
H       -0.91930864      -0.97006227      -2.32931571
H        0.23822803      -2.13995793      -0.42285997
H       -3.14850305      -0.56270808       0.47814962
H       -2.48677211      -1.53537620      -0.87049061
H       -2.20820294      -2.06419324       0.81698648
H       -1.66199319       0.79460369       2.00831194
H        0.11880159       0.66495225       1.96661159
H       -0.84332806      -0.75801353       2.40627607
