39
Properties=species:S:1:pos:R:3 038505=T pbc="F F F"
O       -6.06133275      -1.25999826      -1.22253330
C       -4.90761056      -0.85891894      -0.91231552
C       -4.69563899       0.49165686      -0.63730356
C       -3.41376641       0.95500842      -0.29029460
C       -3.20649685       2.43119495       0.00182467
F       -2.27538416       2.95497370      -0.87721089
F       -2.75600796       2.59091088       1.30000706
F       -4.37818238       3.15606272      -0.13611375
C       -2.34748680       0.01709714      -0.22526421
C       -1.02877393       0.38916500       0.11764672
C       -0.00153966      -0.56471069       0.16716839
N        1.34172434      -0.17393417       0.50292125
C        1.96784614      -0.72220810       1.71378246
C        3.45276212      -0.98547748       1.45880091
C        4.20212873       0.27189120       0.97199066
C        3.27692394       1.38335269       0.44124419
C        2.04525136       0.83496620      -0.31410252
C        2.42120067       0.23191360      -1.68017399
Cl       3.01498102       1.48115871      -2.80805603
C       -0.28649153      -1.90392673      -0.11946860
C       -1.58145492      -2.29230985      -0.45747905
C       -2.61625393      -1.34661222      -0.51464067
N       -3.87764259      -1.74237221      -0.84743727
H       -5.53756885       1.17007823      -0.69784853
H       -0.78377600       1.41093864       0.36562038
H        1.84952719       0.00085310       2.54951210
H        1.48091279      -1.67446489       2.01709308
H        3.92563696      -1.36736234       2.38940704
H        3.53957010      -1.78413837       0.68960359
H        4.80468755       0.68738916       1.80898599
H        4.91845966      -0.02063620       0.17360640
H        3.85888985       2.08023488      -0.19863488
H        2.91240863       1.97961572       1.30681067
H        1.36652951       1.69632419      -0.49545717
H        1.52567664      -0.23231875      -2.14434582
H        3.19405556      -0.55630207      -1.56636148
H        0.50200663      -2.64560250      -0.09292551
H       -1.77773240      -3.33423889      -0.67875692
H       -4.06803871      -2.74925334      -1.05930128
