32
Properties=species:S:1:pos:R:3 038627=T pbc="F F F"
C        2.08542873       2.06245422      -0.39104764
C        2.18335167       0.73031156      -0.56080982
C        3.40854526       0.20715694      -1.26882155
C        1.15665837      -0.27725739      -0.03227125
C        0.48929169      -1.05576154      -1.18198174
C       -0.33300453      -2.23527252      -0.63614051
C       -1.10161979      -1.92189422       0.63575336
C       -2.07367986      -2.94147891       1.16183535
C       -0.85334476      -0.81564474       1.36809153
C        0.04278951       0.29638077       0.87677627
O       -0.75474809       1.23791788       0.15374853
C       -1.66173143       2.11149876       0.76367136
C       -2.45002036       3.05410999      -0.07964888
O       -1.78298010       2.14486289       2.01835963
H        1.27628862       2.53327464       0.14902053
H        2.85412525       2.72332229      -0.78159706
H        3.44797659      -0.90194037      -1.24681006
H        4.32609505       0.58718939      -0.77088185
H        3.40239590       0.54271879      -2.32739591
H        1.73550974      -1.00433330       0.58251548
H        1.24951479      -1.45782779      -1.88484457
H       -0.17212104      -0.37908044      -1.76657370
H        0.35625054      -3.08011922      -0.41969325
H       -1.04226187      -2.57130964      -1.42292228
H       -3.08476637      -2.48917146       1.24118431
H       -1.74957796      -3.29155412       2.16487645
H       -2.13277083      -3.82043973       0.48551463
H       -1.39323560      -0.65735111       2.29804420
H        0.51571687       0.79270493       1.75323934
H       -2.56491679       2.63994767      -1.10323202
H       -3.45798371       3.20861511       0.35994278
H       -1.92117547       4.02797067      -0.13790167
