59
Properties=species:S:1:pos:R:3 040926=T pbc="F F F"
C        4.46101624      -4.47073909       1.24073218
O        4.79327256      -3.41369876       0.34635976
C        4.00252128      -2.27330969       0.13391505
C        2.78030062      -2.07394802       0.79759754
C        2.01063966      -0.92442146       0.56093317
C        2.49518867       0.08428996      -0.31050604
C        3.69719433      -0.15599562      -1.00802054
C        4.44937544      -1.31313308      -0.77786140
O        5.64793682      -1.51831796      -1.45974747
C        1.65812660       1.33990720      -0.63135306
C        2.59547750       2.59898977      -0.74879276
C        2.01740983       3.86732344      -0.10386588
C        1.70563534       3.64770333       1.39180013
C        1.14743867       2.24133006       1.70534382
C        0.55978573       1.59032091       0.43931998
C       -0.21494345       0.29331644       0.68090479
C        0.69144738      -0.79152682       1.28182632
N       -0.81523986      -0.17187967      -0.59021985
C       -2.03794173      -0.93625016      -0.54313004
O       -2.52460618      -1.42050924      -1.60249085
O       -2.68383897      -1.14943156       0.68188308
C       -3.92709119      -1.83611082       0.80527588
C       -5.04842162      -0.98657223       0.27289166
C       -5.73564629      -1.35600439      -0.89553307
C       -6.76310110      -0.54777236      -1.39246006
C       -7.10834671       0.63345094      -0.72984116
C       -6.42569397       1.00936474       0.43035982
C       -5.39771934       0.20406083       0.93055352
C       -0.05225196      -0.12818746      -1.85861400
C        0.90252309       1.08340832      -1.95648790
H        3.50556979      -4.94551975       0.93264053
H        4.37881603      -4.08201013       2.27773648
H        5.26328564      -5.23611261       1.21106381
H        2.41113390      -2.81626906       1.49303955
H        4.05323335       0.55569856      -1.74181595
H        6.00124378      -0.84358199      -2.12820918
H        3.56578262       2.41060699      -0.23740234
H        2.83693215       2.81437852      -1.81266009
H        1.09324882       4.16625257      -0.64492097
H        2.74429220       4.70173204      -0.20858307
H        0.97050413       4.41718171       1.71334745
H        2.63148130       3.80796923       1.98643002
H        1.96773457       1.60971523       2.11021409
H        0.36458472       2.32283879       2.49052377
H       -0.19266657       2.31402933       0.04532571
H       -1.02184690       0.52046381       1.41305344
H        0.15220019      -1.76394585       1.26151943
H        0.89392734      -0.55452767       2.34840355
H       -3.87196242      -2.81763895       0.28514839
H       -4.11254568      -2.04330343       1.88032808
H       -5.47571717      -2.26555536      -1.42262467
H       -7.29048562      -0.83630651      -2.29251019
H       -7.90322443       1.25814653      -1.11632700
H       -6.69177497       1.92575184       0.94113778
H       -4.87210291       0.50792162       1.82752889
H        0.52885599      -1.06997117      -1.96104469
H       -0.74779641      -0.07328754      -2.72389039
H        1.62370249       0.90396806      -2.78403737
H        0.31314669       1.98571764      -2.23418771
