44
Properties=species:S:1:pos:R:3 040768=T pbc="F F F"
C        0.30195711      -2.96030692       0.31323961
C        1.28371602      -1.99768011      -0.37620998
C        2.26118534      -2.82113494      -1.23511174
C        0.55426933      -0.89701545      -1.22389559
C        1.52825412       0.12848687      -1.83880375
C        2.21376734       1.01297538      -0.78129530
C        1.27852395       1.48731457       0.39137751
C        1.57585456       2.97930574       0.68771331
N        1.54255260       0.69748668       1.60447978
C        2.66304395       0.68219904       2.21242408
S        4.08026918       0.66289267       2.97718080
C       -0.22841554       1.30369460       0.00773420
C       -1.19625577       1.74547676       1.12877996
C       -2.64278358       1.48360165       0.71106358
C       -2.89536961      -0.01555559       0.42952905
C       -4.19577448      -0.16070116      -0.37355321
O       -3.06669766      -0.70904440       1.64343323
C       -1.76282969      -0.64947133      -0.36278133
C       -0.51330908      -0.13311130      -0.44058162
H       -0.36601024      -3.44042661      -0.43318992
H       -0.30527569      -2.42467098       1.07166780
H        0.85447453      -3.75702409       0.85581314
H        1.88035926      -1.52072208       0.42537874
H        3.13078765      -2.20693109      -1.54473329
H        2.67213489      -3.67410107      -0.65360744
H        1.75106256      -3.22141319      -2.13726752
H        0.05829805      -1.40295953      -2.08377787
H        0.95483908       0.78581837      -2.53035872
H        2.29229956      -0.36361287      -2.47398934
H        3.09500758       0.46532215      -0.38416191
H        2.63430859       1.88745785      -1.32610938
H        1.10244525       3.30290199       1.63799045
H        1.21005461       3.62621392      -0.13841731
H        2.66967609       3.14372152       0.79773373
H       -0.43556799       1.95595803      -0.87103842
H       -0.97175061       1.21725099       2.07937335
H       -1.09644207       2.83538761       1.31329770
H       -3.32659699       1.83580560       1.51441393
H       -2.85887787       2.08947861      -0.19785746
H       -4.10336628       0.32984099      -1.36706288
H       -4.43612862      -1.23441711      -0.53184085
H       -5.04271462       0.30442507       0.17570183
H       -2.19235231      -0.74010885       2.11237143
H       -1.95262252      -1.63260800      -0.78505238
