41
Properties=species:S:1:pos:R:3 041402=T pbc="F F F"
C       -3.16662706       1.72069615      -1.74842160
C       -2.34091112       1.21962881      -0.82505784
C       -0.86978983       1.24850816      -0.87867909
C       -0.51045299       0.45182582       0.41294300
C        0.73266915       1.05415576       1.10749100
C        2.09479996       0.75260421       0.38778725
C        3.09733012       0.13642156       1.39165284
C        2.70331886       2.08071877      -0.11785516
C        1.93934086      -0.20186863      -0.83457774
C        1.01504116      -1.42092165      -0.60826002
O        0.76260910      -2.00941025      -1.86040343
C       -0.32685066      -1.10006407       0.17223532
C       -0.26624641      -1.85338030       1.53778643
C       -1.61541003      -1.62700394      -0.55868655
C       -2.91951848      -1.03249024       0.04102575
C       -2.74086197       0.46483690       0.38430324
O       -1.64112856       0.60332464       1.25474571
H       -2.77069592       2.23213789      -2.61996321
H       -4.24148458       1.61995415      -1.63720259
H       -0.52450068       2.30410725      -0.84046462
H       -0.53134660       0.76536005      -1.81585715
H        0.75755397       0.68563208       2.15549742
H        0.57598568       2.14944033       1.22861571
H        3.22462411       0.79982693       2.27448574
H        4.09457973      -0.00274586       0.92064294
H        2.75332724      -0.85398320       1.74903944
H        3.66590933       1.89967533      -0.64393726
H        2.89637421       2.77389588       0.72964481
H        2.01155141       2.58513033      -0.82624736
H        1.58818174       0.36622861      -1.71907657
H        2.94157847      -0.57757648      -1.14111140
H        1.63234383      -2.14000880      -0.01694291
H        0.58136855      -2.97247428      -1.69886926
H        0.62873008      -1.57739523       2.12589218
H       -1.15411204      -1.65184248       2.17139757
H       -0.21829030      -2.95140817       1.37118505
H       -1.66853768      -2.73732896      -0.52607002
H       -1.58827821      -1.35008309      -1.63432436
H       -3.75528883      -1.15956779      -0.68108453
H       -3.19242200      -1.58537687       0.96495098
H       -3.65446362       0.89082070       0.85177028
