54
Properties=species:S:1:pos:R:3 042899=T pbc="F F F"
C       -3.02362335       0.53363696       3.04534691
O       -2.57123260      -0.09958626       1.86816750
C       -2.14657307       0.86105887       0.91410137
O       -0.76105049       1.14299384       1.12065863
C        0.16957419       0.31048858       0.42627450
C       -0.43018623      -1.03137231      -0.07054513
C       -1.64532525      -0.80566997      -0.99965380
C       -2.56458586      -2.04543992      -1.07016456
C       -3.87424690      -1.64564506      -0.41329338
C       -3.98107637      -0.13763837      -0.59547355
O       -4.57677146       0.10492889      -1.84889892
C       -2.51408583       0.39034979      -0.53570996
C       -2.24589468       1.53492883      -1.56763187
O       -1.61246172       0.91357764      -2.67006761
C       -1.22090373      -0.37114996      -2.36448803
O       -0.56642057      -1.08891407      -3.16639456
O        0.62855396       1.05107295      -0.71257436
C        1.91615406       0.95217102      -1.23895500
C        2.17768617       1.41274825      -2.52920641
C        3.47142421       1.34334623      -3.04795016
C        4.52408410       0.83415073      -2.27221368
O        5.81063011       0.78895908      -2.81044933
C        4.26868414       0.38039913      -0.95541446
C        5.27941590      -0.10095764      -0.09390784
O        6.47853773      -0.17182559      -0.47359823
O        4.98101078      -0.48082840       1.14472464
C        3.74737269      -0.45015256       1.63789897
C        3.52131588      -0.86394450       2.94970794
C        2.22920593      -0.86243498       3.47096633
C        1.14139648      -0.46040440       2.68320342
O       -0.14229417      -0.52394178       3.21749539
C        1.34764619      -0.01197586       1.35688285
C        2.66906830      -0.00827350       0.84421669
C        2.94642698       0.42570615      -0.45664844
H       -3.98401283       1.06234710       2.85933270
H       -3.20753809      -0.24203181       3.81653040
H       -2.26411127       1.24065518       3.44838256
H       -2.69318284       1.82741455       1.04468620
H        0.34697524      -1.62462988      -0.60249375
H       -0.74138615      -1.63228576       0.81205917
H       -2.13146477      -2.93297717      -0.55895823
H       -2.77250276      -2.34070533      -2.12354839
H       -3.84532493      -1.90285861       0.66732195
H       -4.73565078      -2.17937183      -0.87190198
H       -4.60799279       0.29171023       0.22348124
H       -5.22326738       0.84896835      -1.72994850
H       -3.16019817       2.07086225      -1.89419582
H       -1.55769238       2.30362525      -1.15668704
H        1.37620050       1.82159891      -3.13130263
H        3.65878961       1.69737389      -4.05373121
H        6.00643468       1.11250757      -3.75063361
H        4.34800927      -1.19608729       3.56520309
H        2.06891227      -1.19794699       4.48777152
H       -0.31245194      -0.84853042       4.16222649
