68
Properties=species:S:1:pos:R:3 042148=T pbc="F F F"
C       -6.03268610      -0.21841770       0.73167550
C       -5.11301251       0.12013798      -0.44853354
C       -4.46632750      -1.14289394      -1.04886177
C       -3.20452088      -1.60264510      -0.30092868
C       -2.16706934      -0.44341261      -0.21689867
C       -2.75541264       0.77628196       0.59369462
C       -3.07265241       0.49666940       2.09643588
C       -1.75922240       1.96537347       0.51714782
C       -0.30433482       1.59428390       0.88205739
C        0.29009053       0.43213377       0.01188220
C        0.36658803       0.97639429      -1.44864602
C        1.76125221       0.04590804       0.49109818
C        2.82324551       1.21381606       0.54122834
C        3.94440077       1.30995256      -0.55390608
C        3.48905201       2.11043286      -1.79789167
C        5.13963722       2.08710484       0.05346650
C        4.45328352      -0.07929482      -0.98776765
C        3.32110977      -1.06620946      -1.27837645
C        2.37225308      -1.31192266      -0.06859277
C        3.22321273      -1.96345389       1.06713452
C        1.30943552      -2.39223318      -0.50576447
C       -0.12595942      -1.92711229      -0.81500331
C       -0.66915892      -0.84112962       0.15573454
C       -0.66007285      -1.46469131       1.59332420
C       -4.08344741       1.16762678      -0.06604064
O       -4.38430777       2.34753927      -0.18865209
H       -5.49836470      -0.79712834       1.51101803
H       -6.89049880      -0.82885195       0.37733900
H       -6.43731923       0.71191580       1.18461711
H       -5.76241655       0.55703736      -1.24058646
H       -5.20277943      -1.97591669      -1.07587104
H       -4.19276903      -0.93089620      -2.10663953
H       -3.48466191      -2.00002458       0.69246203
H       -2.81158012      -2.45562980      -0.88256358
H       -2.11743538      -0.10898608      -1.27038697
H       -2.25813294       0.81173146       2.77600869
H       -3.29395296      -0.56468165       2.30616445
H       -3.94861777       1.09089122       2.43765873
H       -1.77737092       2.41345513      -0.49890739
H       -2.09280546       2.77737213       1.20185721
H       -0.22226044       1.36684304       1.96243852
H        0.27125436       2.52986754       0.74603603
H        0.86050727       1.96513050      -1.45948086
H       -0.61021178       1.16177362      -1.92222077
H        0.90298177       0.30004651      -2.12843238
H        1.59032778      -0.14493393       1.57328647
H        2.34533160       2.20354938       0.62990921
H        3.33862155       1.09959237       1.52242992
H        4.36187617       2.38397047      -2.42993803
H        2.98417572       3.05473584      -1.50193556
H        2.82447508       1.52318611      -2.45467192
H        5.54321313       1.56662868       0.94915037
H        4.82619348       3.10892477       0.35980351
H        5.96967472       2.18138872      -0.68047279
H        5.07702461       0.01848207      -1.90442037
H        5.13128632      -0.50849630      -0.22060809
H        3.79944833      -2.02735761      -1.57279176
H        2.76271701      -0.74513513      -2.17481393
H        2.58232809      -2.29954478       1.90880573
H        3.95339869      -1.25336702       1.50466216
H        3.77652265      -2.85158560       0.69169045
H        1.22862443      -3.19567591       0.25992020
H        1.66684241      -2.95329481      -1.39768801
H       -0.74479782      -2.84361710      -0.75285617
H       -0.19976278      -1.59841235      -1.87168212
H        0.28473355      -1.97073188       1.84890186
H       -1.44527833      -2.23896083       1.70104094
H       -0.78591829      -0.72353280       2.39275120
