33
Properties=species:S:1:pos:R:3 043787=T pbc="F F F"
C       -6.27745298       0.41604708      -0.39888463
C       -5.14324682       1.39276553      -0.30902216
O       -5.40929575       2.62487785      -0.35283774
C       -3.73040829       0.94701908      -0.17122327
C       -3.39483657      -0.42106647      -0.11885305
C       -2.06151399      -0.82184386       0.01086468
C       -1.04411063       0.13448464       0.09028727
C        0.32730523      -0.27949271       0.22330928
C        1.47764723      -0.62314042       0.33405161
C        2.88666985      -1.04060173       0.46960707
C        3.00015505      -2.46445109      -0.10248529
N        3.78196092      -0.07730937      -0.23086297
C        5.19123662      -0.51689950      -0.19439164
C        3.69641594       1.26363241       0.38473913
C       -1.36356520       1.49503567       0.03940652
C       -2.69559532       1.89928860      -0.09024440
H       -6.14498069      -0.23483236      -1.28835222
H       -6.31239494      -0.20675016       0.51940091
H       -7.24607354       0.95118084      -0.49690020
H       -4.15594608      -1.18728026      -0.17746073
H       -1.82440220      -1.87845975       0.04913064
H        3.13172451      -1.07916755       1.55523396
H        3.96755912      -2.92722189       0.18358295
H        2.20018814      -3.11777630       0.31011541
H        2.91268324      -2.44736752      -1.21035535
H        5.33962122      -1.39029260      -0.86228885
H        5.86593562       0.27563992      -0.58585983
H        5.50697040      -0.77707179       0.84054807
H        2.67300371       1.68107309       0.28177576
H        4.37086619       1.97630663      -0.13774255
H        3.97069758       1.23036684       1.46287474
H       -0.58286943       2.24407928       0.09987528
H       -2.91394813       2.95922788      -0.12703837
