44
Properties=species:S:1:pos:R:3 043444=T pbc="F F F"
C        0.05894090      -3.35020601       3.52628294
C        0.68031598      -2.34173447       2.54717997
C        0.49323937      -0.91667427       3.09094477
C        2.18071920      -2.63945199       2.37697256
S       -0.17267375      -2.47761199       0.94360248
O        0.14887427      -3.87278982       0.42384455
N        0.72283119      -1.41984012      -0.13658646
C        0.20234019      -0.51667101      -0.91831891
C       -1.29737957      -0.30038075      -0.96774818
C       -1.75610513       0.64611729       0.14603433
C       -3.25831508       0.92663492       0.01917911
C       -3.63180734       2.12095044      -0.84584349
C       -3.72881112       2.21853638       0.66928285
C        1.12333272       0.31771020      -1.74518403
C        2.43458673      -0.12859423      -2.00382689
C        3.31185399       0.64115604      -2.77064672
C        2.90110173       1.86959319      -3.28974479
F        3.76908343       2.60238704      -4.03180297
C        1.60300298       2.33790441      -3.04074082
N        1.17475352       3.60011894      -3.56260540
C        0.72171711       1.56368636      -2.27095927
H       -1.02927030      -3.15774378       3.64411498
H        0.53950227      -3.27374453       4.52560719
H        0.19092706      -4.38879577       3.15409987
H       -0.58554280      -0.69404806       3.23576598
H        1.00735425      -0.80007659       4.06938820
H        0.91351637      -0.16925415       2.38420555
H        2.70464881      -2.57164748       3.35481468
H        2.65102695      -1.91160647       1.68210607
H        2.33488529      -3.66191448       1.97115269
H       -1.83064806      -1.27071987      -0.87832658
H       -1.59067249       0.10594926      -1.95909831
H       -1.57779679       0.17059404       1.13206999
H       -1.16116139       1.58554108       0.11504784
H       -3.99127107       0.09177249       0.04120116
H       -2.78552003       2.69248354      -1.28391016
H       -4.61379000       2.02822745      -1.35577493
H       -4.76981847       2.18823264       1.05467343
H       -2.94227628       2.85318274       1.13117034
H        2.78258624      -1.07998157      -1.62114146
H        4.31463592       0.28177337      -2.96336461
H        0.20935657       3.95401495      -3.37887655
H        1.81509103       4.19277403      -4.13624328
H       -0.26736439       1.95414663      -2.07799771
