86
Properties=species:S:1:pos:R:3 044480=T pbc="F F F"
C       -3.03126396       0.49251777      -3.88636125
C       -3.27888836      -0.61700837      -2.84865437
C       -4.68510837      -1.14195945      -3.03889592
C       -5.70286258      -0.84119013      -2.22022039
C       -5.50920868      -0.15005986      -0.89251951
C       -6.71262772       0.77123132      -0.57850623
C       -6.38535151       1.86326474       0.46207440
C       -5.26874387       1.42847864       1.41687259
C       -3.95932277       1.10174336       0.66436960
C       -4.18100349       0.63942896      -0.80383298
C       -3.00607947      -0.21709743      -1.35592887
C       -1.65047372       0.46598130      -1.12748035
O       -1.37788666       1.44419071      -1.80718141
C       -0.75233305       0.20276445       0.08647711
C       -0.70417355      -1.13545388       0.74084194
O       -1.71147793      -1.84454730       0.99990288
N        0.58672455      -1.42847871       1.27873729
C        0.73413696      -1.96872452       2.62196859
C        1.55089267      -0.93111623       3.38557471
C        1.60056409       0.30707635       2.46878693
C        0.49721804       1.30814778       2.87420414
O        0.80976083       1.87066853       4.12287861
C        1.49199564      -0.31495806       1.02780309
O        2.73152822      -0.85804822       0.56643608
Si       4.25590135       0.03302933       0.70093822
C        5.44826511      -0.88967060      -0.41613711
C        5.02642118      -0.27488034       2.38872197
C        4.41659322       1.90568077       0.23632839
C        3.91117927       2.18020212      -1.19106804
C        5.91065698       2.29017386       0.29642755
C        3.66203027       2.80976734       1.22445960
C        0.76143262       0.47364844      -0.12009716
S        1.30200002      -0.04461500      -1.84051808
C        1.26121477      -1.85539895      -1.75785134
C        2.46293564      -2.57589948      -1.73795350
C        2.45448193      -3.97418898      -1.71598374
C        1.24200771      -4.66599530      -1.74568169
C        0.04070800      -3.95742429      -1.82690150
C        0.05426149      -2.55991339      -1.85351341
H       -1.94392911       0.64160952      -4.04457038
H       -3.49995304       1.44940903      -3.58222289
H       -3.44997315       0.20004715      -4.87439946
H       -2.60437816      -1.45245341      -3.11902287
H       -4.90047895      -1.70402844      -3.94298833
H       -6.68587114      -1.23742808      -2.45593328
H       -5.48302051      -0.95552966      -0.12280097
H       -7.54965163       0.14299255      -0.20062119
H       -7.06560303       1.27313047      -1.50748683
H       -6.06665540       2.79099747      -0.06230286
H       -7.29988403       2.10525563       1.04593447
H       -5.60909304       0.52919179       1.97744526
H       -5.07841953       2.23046355       2.16227138
H       -3.31240088       2.00638382       0.65903363
H       -3.43153764       0.31007663       1.23890345
H       -4.27501948       1.55432250      -1.43000746
H       -3.01995936      -1.17036893      -0.79882624
H       -1.12301494       0.91276231       0.84536743
H       -0.25405935      -2.10424896       3.11394215
H        1.26067360      -2.94489168       2.57825487
H        1.10736020      -0.72015027       4.38199245
H        2.57810610      -1.31914732       3.54643806
H        2.54230355       0.83705672       2.63861562
H        0.42131821       2.11376912       2.11158225
H       -0.48275949       0.79535739       2.96527333
H        0.41381325       2.77896576       4.13603038
H        6.49233308      -0.60023818      -0.17999962
H        5.24198080      -0.65890636      -1.48032667
H        5.33930297      -1.98073791      -0.24477625
H        4.82872391      -1.32227075       2.69442304
H        6.12406066      -0.13173014       2.32051440
H        4.63952177       0.41860341       3.15816677
H        4.20924444       3.19879921      -1.52304869
H        2.81006206       2.14876154      -1.23665676
H        4.32905475       1.45301431      -1.91604084
H        6.33376206       2.08796082       1.30273094
H        6.49995564       1.73170107      -0.46051739
H        6.05010212       3.37316298       0.08700886
H        4.00934076       2.64075238       2.26587219
H        3.83397717       3.88021939       0.98151964
H        2.57238700       2.63825516       1.17003750
H        0.95083569       1.56003906      -0.03393187
H        3.40344176      -2.05465574      -1.76484044
H        3.38946048      -4.52008716      -1.68469327
H        1.23300661      -5.74748594      -1.72484961
H       -0.89940485      -4.49011866      -1.87114695
H       -0.87516680      -2.02995040      -1.91786377
