42
Properties=species:S:1:pos:R:3 045339=T pbc="F F F"
C        2.72849436       1.74998411      -1.75534174
C        2.49139488       0.98375556      -0.44753558
N        3.24156903      -0.28135941      -0.44838110
C        4.67411575      -0.38849493      -0.31041901
C        5.48476717       0.71852310       0.01812554
C        6.86922369       0.56753439       0.14705886
C        7.46058454      -0.68264943      -0.04475959
C        6.66848890      -1.78668531      -0.36462673
C        5.28422482      -1.64179805      -0.49499823
C        1.00836290       0.72665511      -0.24329500
C        0.34128621       1.27654607       0.86673095
C       -1.02437804       1.04687128       1.05924391
C       -1.74145123       0.26567473       0.14587716
C       -3.14683382       0.02952849       0.34590711
C       -4.32414020      -0.16834235       0.51390361
C       -5.72932429      -0.40456909       0.71501018
C       -6.26096099      -1.68737221       0.52169539
C       -7.62699961      -1.91554493       0.71869454
C       -8.46376733      -0.86458506       1.10824974
C       -7.93549750       0.41602821       1.30166072
C       -6.56983315       0.64740439       1.10570048
C       -1.08809347      -0.28577862      -0.96203274
C        0.27716677      -0.05734207      -1.15686836
H        2.45403211       1.12802110      -2.63341621
H        3.79609860       2.03422520      -1.85350457
H        2.12201282       2.68091270      -1.76761942
H        2.85193871       1.61426051       0.39300382
H        2.70977897      -1.17210527      -0.58180371
H        5.06519801       1.70004948       0.18057371
H        7.48457586       1.42197495       0.39817502
H        8.53223077      -0.79608338       0.05627406
H        7.12690017      -2.75619310      -0.51154842
H        4.68552980      -2.50909303      -0.74387249
H        0.87604981       1.88465996       1.58575633
H       -1.52081706       1.47861987       1.92022699
H       -5.62101430      -2.50810484       0.22003676
H       -8.03680057      -2.90627966       0.56944313
H       -9.52053153      -1.04233854       1.26036634
H       -8.58391891       1.22887044       1.60352254
H       -6.17015624       1.64311024       1.25838394
H       -1.63363396      -0.89269918      -1.67487796
H        0.76412755      -0.49579144      -2.01871994
