75
Properties=species:S:1:pos:R:3 045800=T pbc="F F F"
C        6.12535965       0.13248677       0.92820219
C        4.86846452      -0.27988226       0.72272714
C        4.35143943      -1.56958042       1.29233554
C        2.90601637      -1.80374629       0.77522075
C        2.34989572      -3.14900430       1.28819724
C        0.95870741      -3.40823309       0.66804473
C       -0.05618603      -2.32859248       0.94400290
C       -1.23023659      -2.81420541       0.00117778
C       -2.18246022      -3.74701430       0.79056701
C       -2.05921815      -1.66301981      -0.63991411
C       -1.90201621      -0.38545881       0.14005748
O       -2.71450229       0.62459770      -0.46071819
C       -3.98371658       0.99001543       0.00979084
O       -4.46618743       0.44220174       1.04313231
C       -4.73985639       2.05161052      -0.68747573
C       -4.29732032       2.54385508      -1.93137936
C       -5.01183901       3.55326917      -2.58792191
C       -6.16610913       4.08498593      -2.00526836
C       -6.61260757       3.60701152      -0.76763748
C       -5.90680557       2.59285424      -0.11194337
C       -0.42397599       0.07477586       0.15491818
O       -0.30647908       0.94748767       1.28755421
C       -0.82122236       2.24874317       1.35361026
C       -0.74681561       2.99783201       2.63820639
O       -1.35045948       2.79091148       0.34675535
C        0.64226906      -1.09288842       0.30470030
C        1.92402649      -0.65847712       1.12870469
C        2.63516808       0.72995928       0.74478469
O        1.80446700       1.66209351       0.05639178
C        2.10183749       3.02608492      -0.05047208
C        1.32031544       3.87754940      -0.99033803
O        2.99808746       3.55270634       0.66726002
C        3.89058391       0.48448607      -0.13168614
C        3.49580304      -0.42823380      -1.31645356
O        2.66465802       0.27150030      -2.21052544
C        2.81303364      -1.73367193      -0.77099917
C        1.27605883      -1.82161765      -0.95713244
N        0.98222225      -3.28282579      -0.78826782
C       -0.42442427      -3.53970821      -1.12692939
O       -0.66473617      -4.92587485      -1.13408065
H        6.80687478      -0.45694749       1.53258957
H        6.48889271       1.05908191       0.49456596
H        5.00940290      -2.40416468       0.96720699
H        4.35450666      -1.51521627       2.40253234
H        3.03071702      -3.97868611       1.00082188
H        2.26902575      -3.13568509       2.39766946
H        0.62780818      -4.41793808       1.00143926
H       -0.32659059      -2.20068478       2.01650800
H       -2.74732725      -3.16134594       1.54469613
H       -2.91256047      -4.22796248       0.10550500
H       -1.62813954      -4.54161548       1.32710694
H       -3.13879764      -1.92736390      -0.69512162
H       -1.75806590      -1.43396747      -1.68349414
H       -2.22872419      -0.56861094       1.19004290
H       -3.40404346       2.14628798      -2.39866483
H       -4.67245772       3.92528868      -3.54770715
H       -6.71647380       4.86660513      -2.51388308
H       -7.50721564       4.01879735      -0.31783363
H       -6.26861784       2.24111200       0.84793829
H       -0.21128366       0.62200331      -0.78691045
H       -0.68257845       4.09005596       2.44490358
H       -1.65412697       2.78206284       3.24247729
H        0.15239666       2.68032295       3.20748963
H        1.69333018      -0.66010297       2.21759704
H        2.95293479       1.19723988       1.70659717
H        0.59706600       4.49836482      -0.41836379
H        0.76734295       3.23590658      -1.70967668
H        2.00216318       4.54418340      -1.55585157
H        4.33207757       1.43606387      -0.49989748
H        4.44010051      -0.71257753      -1.84312621
H        2.79571391      -0.13873710      -3.10580482
H        3.31999361      -2.60898642      -1.23728445
H        0.92152663      -1.43410818      -1.93722967
H       -0.64013754      -3.16598335      -2.15384674
H       -0.10597271      -5.30767555      -1.86018969
