27
Properties=species:S:1:pos:R:3 046455=T pbc="F F F"
C        3.30560774       0.13617023      -0.97245551
C        2.21810615      -0.22133303      -0.27138011
C        2.39625509      -1.06725116       0.96426077
C        0.83449273       0.24540349      -0.70259296
C       -0.11913555      -0.95967635      -0.97531070
C       -1.37604317      -0.96567439      -0.08982045
C       -2.12719193       0.37841985      -0.17251525
C       -3.26324426       0.41965411       0.85488261
C       -1.17632876       1.53466710       0.03655960
O       -1.58418569       2.68494762      -0.02648491
C        0.27673140       1.26758691       0.31287616
H        4.29577080      -0.18599455      -0.66339662
H        3.22584753       0.75422540      -1.86137769
H        1.42147621      -1.29432895       1.44277750
H        2.88337670      -2.02821129       0.69487370
H        3.03097277      -0.52956894       1.69998096
H        0.92503313       0.79472563      -1.66841263
H       -0.44700743      -0.92668806      -2.03814304
H        0.40671459      -1.93124771      -0.84816078
H       -1.07735017      -1.17525781       0.96121974
H       -2.04807574      -1.78821002      -0.41876380
H       -2.56883586       0.47273122      -1.18924595
H       -3.84563094       1.35949264       0.74655011
H       -3.95496347      -0.43462516       0.69393465
H       -2.85853052       0.36514751       1.88865840
H        0.36479980       0.88281511       1.35134198
H        0.86133883       2.21208061       0.25014422
