45
Properties=species:S:1:pos:R:3 046435=T pbc="F F F"
C        3.80610511       3.98243148       0.66172019
O        3.88049784       2.59252786       0.36106658
C        2.78595300       1.71302488       0.38111910
C        1.48988852       2.14204897       0.70931842
C        0.41399525       1.24270579       0.71452926
C        0.63444645      -0.12561649       0.43990711
C        1.93281963      -0.53920696       0.07933359
C        3.00710676       0.36982798       0.05838054
O        4.31127533      -0.02344598      -0.28456946
C        4.69319023      -1.35098750      -0.63087528
C       -0.53278095      -1.05828729       0.40092804
C       -0.43446863      -2.45881444       0.28378495
C       -1.51866330      -3.23953636       0.01015223
C       -2.78682979      -2.70611553      -0.19448329
C       -2.93952366      -1.31579990      -0.05056308
C       -1.84060325      -0.52283917       0.35897365
C       -2.13012607       0.92879291       0.58527336
C       -0.94157095       1.74133524       1.15080509
N       -2.79216232       1.43848483      -0.63304388
C       -2.22937512       2.41829300      -1.52534944
O       -0.99654134       2.67117545      -1.53729959
C       -3.99950048       0.72142611      -1.10554738
C       -4.24709562      -0.61962975      -0.35712891
O       -1.13746796      -4.56586558      -0.05143374
C        0.26903409      -4.63537555       0.20654007
O        0.67367863      -3.27717281       0.41548555
H        3.12391943       4.49151907      -0.05151576
H        4.81710274       4.42846837       0.56556297
H        3.45070179       4.12937730       1.70349475
H        1.30855511       3.17743521       0.96555489
H        2.11475563      -1.55360139      -0.22467490
H        4.15066610      -1.67909502      -1.54257518
H        5.78223474      -1.37150023      -0.84025386
H        4.48045363      -2.04220240       0.21194033
H       -3.61803170      -3.34325030      -0.46782672
H       -2.89431266       0.97338463       1.39504540
H       -1.07465750       2.82332977       0.93779024
H       -0.95888742       1.65405072       2.25978877
H       -2.86738987       2.91090338      -2.24798102
H       -3.88116034       0.48466368      -2.18645317
H       -4.88783940       1.37948202      -0.99633207
H       -4.90368601      -1.26864112      -0.97651181
H       -4.77524069      -0.41788844       0.59945499
H        0.46239776      -5.23749696       1.11891509
H        0.79913727      -5.06231951      -0.67044660
