65
Properties=species:S:1:pos:R:3 047369=T pbc="F F F"
C        7.46980815      -2.08830918       1.01928432
C        7.23598434      -1.34984555      -0.29915112
C        6.54825914       0.00986223      -0.10173316
C        5.05361986      -0.12868154       0.22450072
C        4.39797759       1.24966930       0.40401684
C        2.86539726       1.14662518       0.61180600
C        1.97644850       1.56029320      -0.60537028
C        2.15390388       3.07732872      -0.88720365
C        2.39307421       0.80287782      -1.89235223
C        0.50813871       1.20564652      -0.26114885
C       -0.47343141       2.18452036       0.01765569
C       -1.79258898       1.83336159       0.34990245
O       -2.72845181       2.85027132       0.52026307
C       -2.14720434       0.46974070       0.46868199
C       -1.19560064      -0.50758615       0.11400065
C        0.11618273      -0.14653935      -0.18925960
O       -1.56304110      -1.86434379       0.02802729
C       -2.91405317      -2.33774318      -0.15366269
C       -2.96823862      -3.04797749      -1.51839474
C       -3.20962212      -3.37060830       0.95216554
C       -3.91756267      -1.13279205      -0.13468647
C       -5.41358464      -1.48210840       0.00018849
C       -6.19688950      -0.20693983      -0.18116328
C       -5.77686852       0.92259286       0.42094513
C       -6.45416838       2.23158779       0.12805921
C       -4.63578407       0.84063227       1.41237701
C       -3.47921590      -0.10002893       0.94110691
H        6.50709716      -2.39135122       1.48244649
H        8.03488332      -1.44582361       1.72855934
H        8.06437518      -3.00609134       0.82664763
H        8.22623552      -1.17689192      -0.77362470
H        6.64050071      -1.98974492      -0.98656883
H        7.06396643       0.58397279       0.70018844
H        6.65179513       0.58636683      -1.04763030
H        4.92473011      -0.70855671       1.16360102
H        4.55304543      -0.67998683      -0.59994198
H        4.84618155       1.72991624       1.30187669
H        4.65478193       1.89419535      -0.45858192
H        2.60953048       0.11304965       0.93302598
H        2.58927059       1.79191511       1.47503017
H        1.43876760       3.41449334      -1.66887688
H        1.99790967       3.67575036       0.03563009
H        3.16848721       3.31647994      -1.26470539
H        1.64457586       0.97184686      -2.69723977
H        3.37701265       1.15035680      -2.27277667
H        2.47935202      -0.28855642      -1.72047801
H       -0.24108874       3.23758845      -0.02636497
H       -2.47883706       3.82949257       0.44049354
H        0.82177343      -0.93977242      -0.39170300
H       -2.23280187      -3.88091836      -1.54758494
H       -3.97758788      -3.46680470      -1.71683088
H       -2.70829739      -2.33865247      -2.33376862
H       -3.20293977      -2.90046206       1.95581651
H       -2.43135045      -4.16380579       0.94991443
H       -4.19413348      -3.85951644       0.79175909
H       -3.82228330      -0.62181075      -1.12388998
H       -5.72293336      -2.21507795      -0.77288705
H       -5.62859916      -1.90280719       1.00563247
H       -7.01429071      -0.17900239      -0.89649834
H       -6.00715902       3.05488897       0.72322262
H       -6.34491750       2.47763682      -0.94974235
H       -7.53386890       2.16062532       0.37898416
H       -4.30763728       1.82608913       1.77955494
H       -5.08032283       0.38117760       2.32398121
H       -3.21771180      -0.66171475       1.86447453
