38
Properties=species:S:1:pos:R:3 047590=T pbc="F F F"
C        4.89952495      -1.44722849      -0.05063744
C        4.48214884      -0.31686869      -0.62813699
C        3.10971650      -0.19476674      -1.24561144
C        2.07413185       0.52016973      -0.32533752
C        2.53810802       1.96887773      -0.04383419
C        1.93837359      -0.27158955       1.00574534
C        0.69760157       0.12734146       1.80250023
C       -0.57179843      -0.23231095       1.03590152
C       -0.56290570       0.28691347      -0.38861109
C       -1.70469401       0.33379562      -1.11005950
C       -3.03618048      -0.01012939      -0.57786523
C       -3.66911023       0.81785309       0.36366314
C       -4.94848133       0.50022757       0.83041834
C       -5.60862436      -0.63335088       0.34732822
C       -4.99310281      -1.44666903      -0.60871909
C       -3.71353894      -1.13191078      -1.07753872
C        0.73801422       0.59149702      -1.05865156
O        0.73464364       0.98783447      -2.25846410
H        5.88661171      -1.49479005       0.39736678
H        4.26452695      -2.32716341      -0.01646356
H        5.13782961       0.54873424      -0.62822022
H        2.72855683      -1.20235230      -1.52746533
H        3.22683648       0.37044511      -2.19596822
H        1.74828029       2.54989188       0.47692301
H        3.45006090       1.98229139       0.59001377
H        2.76949670       2.49685932      -0.99416901
H        2.83496430      -0.11148518       1.64378427
H        1.88121160      -1.36332947       0.79533466
H        0.69828078      -0.41742777       2.77152326
H        0.70901879       1.21331701       2.03334017
H       -0.68275683      -1.33827807       1.00870237
H       -1.42638009       0.18109596       1.60792758
H       -1.66942628       0.57991188      -2.16421734
H       -3.17412222       1.70850471       0.73120721
H       -5.43046053       1.13593444       1.56185182
H       -6.59945878      -0.87730206       0.70811629
H       -5.50878100      -2.31898986      -0.98896049
H       -3.24811611      -1.76555341      -1.82271693
