54
Properties=species:S:1:pos:R:3 047342=T pbc="F F F"
C        0.21447828       5.05012166      -2.16115579
C        0.00723170       4.36230085      -0.82164190
O       -0.10876415       2.95797223      -1.02074548
C       -0.29581450       2.06083732       0.03417854
O       -0.39579194       2.47942257       1.22098989
C       -0.39224759       0.58276650      -0.26256394
C        0.54726461      -0.25700064       0.64715746
C        1.97956030       0.25628369       0.54399242
C        2.59306721       0.85996717       1.65613019
C        3.89810669       1.35177808       1.56376525
C        4.60318619       1.24956764       0.36245275
C        4.00393998       0.65549620      -0.75195921
Cl       4.88991515       0.52645931      -2.26012509
C        2.69761428       0.16343357      -0.66459550
C        0.42691475      -1.73805309       0.28928980
C        1.60049252      -2.64008733       0.41097800
O        2.39871035      -2.49983314       1.37799311
O        1.83273046      -3.62439822      -0.55435928
C        2.95101786      -4.50123166      -0.50151075
C       -0.80768664      -2.22651198       0.03063867
C       -1.06856164      -3.68895715      -0.21789002
N       -1.93523739      -1.33989445       0.13054644
C       -2.93964684      -1.54749429       1.13810427
C       -3.31182397      -0.13693469       1.56954529
C       -4.81539080       0.12095504       1.47197436
O       -2.61354675       0.79214261       0.76483907
C       -1.87199700       0.07728273      -0.20889660
C       -2.54713080       0.28602981      -1.57412595
H        1.14238402       4.67315947      -2.64124083
H        0.30575801       6.14634150      -2.00980396
H       -0.64985027       4.84822705      -2.82875753
H       -0.91956074       4.75199525      -0.34734257
H        0.87485644       4.57694661      -0.16046613
H       -0.02153333       0.44123223      -1.30321512
H        0.19335438      -0.15339533       1.69800799
H        2.06145739       0.95292035       2.59480798
H        4.36302932       1.81424281       2.42482211
H        5.61373446       1.63244674       0.29864628
H        2.24591879      -0.29860348      -1.53346994
H        2.91671813      -5.18810350      -1.37178251
H        3.89432325      -3.91621302      -0.54105547
H        2.91944374      -5.10131536       0.43245656
H       -2.15891949      -3.88216706      -0.29401460
H       -0.60616821      -3.99963947      -1.17742333
H       -0.66544343      -4.30115444       0.61634574
H       -2.52424600      -2.11457031       2.00123816
H       -3.79291454      -2.10984922       0.69979784
H       -2.99839785       0.01655118       2.62572483
H       -5.36727389      -0.58768822       2.12562735
H       -5.04021741       1.15660168       1.80390214
H       -5.16561884      -0.00133401       0.42514844
H       -2.52936228       1.36109506      -1.85374087
H       -2.02683916      -0.30131643      -2.36103566
H       -3.60522280      -0.04883037      -1.53618292
