55
Properties=species:S:1:pos:R:3 047424=T pbc="F F F"
C       -7.55742811      -0.27356692      -0.32011772
O       -6.29757168       0.35656910      -0.11203175
C       -5.05878023      -0.18704644      -0.49362393
C       -4.96982413      -1.43574076      -1.13629864
C       -3.73401127      -1.93683942      -1.53781515
C       -2.57095889      -1.21078306      -1.29592023
C       -2.62413322       0.02882532      -0.63763173
C       -3.88123421       0.54703972      -0.22994233
C       -4.00764630       1.94107176       0.35289819
C       -2.68823715       2.51904528       0.87053179
C       -1.55265485       2.25667570      -0.11833309
C       -1.32342143       0.74675576      -0.31910378
C       -0.63537363       0.10978652       0.91196685
N       -0.11007912      -1.23203194       0.57281788
C       -0.36227551      -2.22140026       1.63250115
C        1.29714564      -1.21489157       0.10965702
C        2.33420969      -1.07190608       1.24394449
C        3.70632248      -0.83871446       0.67190405
C        4.53299842      -1.93069848       0.33713696
C        5.79710130      -1.71376156      -0.22708728
C        6.22484324      -0.40516861      -0.45624743
C        5.40818356       0.66709259      -0.16810844
C        4.14722791       0.47116665       0.40393569
C        5.97933417       1.99081355      -0.52081211
C        7.14971493       1.71386241      -1.47317236
S        7.79459683       0.02553261      -1.16877901
H       -7.59181663      -1.24509273       0.21662608
H       -8.35960382       0.38052568       0.07859417
H       -7.73232728      -0.42852656      -1.40572783
H       -5.85405991      -2.02240858      -1.34371568
H       -3.67718928      -2.89394379      -2.04028107
H       -1.62234087      -1.62081557      -1.61928798
H       -4.40530903       2.61207588      -0.43937515
H       -4.73656192       1.93711844       1.19220548
H       -2.80325300       3.61554711       1.01144073
H       -2.44774996       2.08401648       1.86348039
H       -0.62210343       2.74535611       0.24383813
H       -1.80706869       2.72269778      -1.09630714
H       -0.64097915       0.64763709      -1.19214446
H        0.17752376       0.77582165       1.27209203
H       -1.37628391       0.04822568       1.74091397
H        0.09808192      -3.19838381       1.37046266
H       -1.45621764      -2.38684384       1.73292785
H        0.03696800      -1.87274719       2.60995773
H        1.50070726      -2.15802693      -0.44302621
H        1.43547243      -0.39065510      -0.62481150
H        2.34997856      -1.99570300       1.86158663
H        2.07129300      -0.23324922       1.92129939
H        4.19758281      -2.94534940       0.51249439
H        6.43433526      -2.55185138      -0.47779269
H        3.51429726       1.32216595       0.62500071
H        6.34710231       2.48641059       0.40327172
H        5.21840218       2.63426522      -1.01298906
H        6.79572335       1.76816744      -2.52510961
H        7.95734798       2.46187859      -1.32789277
