56
Properties=species:S:1:pos:R:3 048806=T pbc="F F F"
C       -3.14437917       3.13464381      -0.35726966
C       -2.45994031       2.26523292       0.38143010
C       -2.15814121       0.91179434      -0.13549500
C       -1.39799365      -0.02456446       0.46934555
C       -0.71075054       0.18564157       1.81980039
N        0.67994930      -0.31038478       1.78192017
S        1.80354349       0.93200710       1.29604246
O        1.82239765       2.02557990       2.32841994
O        3.18101219       0.33512984       1.22263260
C        1.39820297       1.61409527      -0.27618809
C        1.84455763       0.98926370      -1.44577288
C        1.50139622       1.50694377      -2.69766160
C        0.70964568       2.66137025      -2.79128403
C        0.36317087       3.23393579      -4.13313960
C        0.30616653       3.31599723      -1.61775526
C        0.64966321       2.79461962      -0.36696539
C       -1.53369113      -0.48056964       2.91903347
C       -1.26852246      -1.79236544       3.36733142
C       -2.06087306      -2.37959501       4.35797891
C       -3.12981410      -1.67317824       4.91117731
C       -3.41070238      -0.37840311       4.47261018
C       -2.62197261       0.21366462       3.48202584
S       -1.38699281      -1.62747074      -0.34743384
O       -1.79437580      -2.68368797       0.66864802
C        0.23113178      -2.06801214      -0.94357794
C        1.18974063      -2.63547951      -0.09382994
C        2.44204489      -3.00419286      -0.59375054
C        2.74380185      -2.81973581      -1.95190844
C        4.07432395      -3.24706800      -2.49565175
C        1.76408887      -2.29742997      -2.81021879
C        0.51568118      -1.92074717      -2.30612753
H       -3.36001000       4.12204028       0.03000013
H       -3.49037598       2.87956170      -1.35137828
H       -2.14602840       2.59075538       1.35998904
H       -2.60935711       0.65213101      -1.08743437
H       -0.67190611       1.26016623       2.08017837
H        0.98803866      -0.55875807       2.75010746
H        2.45951598       0.10200668      -1.38738229
H        1.85101813       1.00635374      -3.59220061
H        1.15189266       3.95049487      -4.44366539
H       -0.61261543       3.76334308      -4.09206679
H        0.28462962       2.42844742      -4.89412576
H       -0.28018397       4.22503442      -1.67038439
H        0.31989821       3.30500016       0.52856621
H       -0.45634436      -2.37115523       2.94915953
H       -1.84765105      -3.38615666       4.69400916
H       -3.74257283      -2.13038464       5.67729568
H       -4.24221068       0.16757573       4.89927101
H       -2.86215665       1.21674067       3.15776667
H        0.96562797      -2.80755307       0.94976200
H        3.17307172      -3.43953625       0.07626084
H        4.36393581      -2.61495633      -3.36203601
H        4.86394703      -3.14893970      -1.72047372
H        4.01669866      -4.30621108      -2.82255162
H        1.96896278      -2.17386241      -3.86641984
H       -0.22819432      -1.50917283      -2.97661311
