36
Properties=species:S:1:pos:R:3 049775=T pbc="F F F"
O        1.11822891      -2.91759776      -0.10826601
C        0.86870154      -1.72038033      -0.09775226
C       -0.57302235      -1.27945710      -0.10487135
C       -0.77819404      -0.04442351       0.78820856
C       -2.20300878       0.46990657       0.69018183
C       -2.71529287       0.97192565      -0.52295481
C       -4.03070607       1.43963145      -0.59654453
C       -4.84899920       1.41150293       0.53472908
C       -4.35374179       0.91482851       1.74235257
C       -3.03900111       0.44567040       1.82200659
C        0.23950746       1.06057403       0.44742239
C        1.67874936       0.54879035       0.64520653
O        2.59135824       1.58751663       0.38873563
C        1.98447279      -0.68417836      -0.25965881
C        2.11125481      -0.31438453      -1.76382181
C        3.32773862      -1.03817901      -2.21858553
C        4.00333450      -1.56852257      -1.21461058
C        3.37435512      -1.28244178       0.10094022
H       -1.22177737      -2.10564383       0.26145248
H       -0.86440574      -1.05793997      -1.15326410
H       -0.58295406      -0.36232175       1.83820536
H       -2.10029984       1.00169639      -1.41289545
H       -4.41601678       1.82382685      -1.53220140
H       -5.86711374       1.77398076       0.47542454
H       -4.98927937       0.89282453       2.61822119
H       -2.67559311       0.06399284       2.76795329
H        0.10917805       1.40687014      -0.60068035
H        0.06857137       1.93077472       1.11880117
H        1.78838346       0.22611225       1.70895073
H        2.55556383       2.20282335       1.16724459
H        1.23534973      -0.63476087      -2.36848915
H        2.26768232       0.77272620      -1.92660993
H        3.65595793      -1.08768602      -3.25162463
H        4.94520612      -2.09273157      -1.33871445
H        4.01883353      -0.55189523       0.63630645
H        3.31697851      -2.20343034       0.71920194
