54
Properties=species:S:1:pos:R:3 049509=T pbc="F F F"
C        8.57332210      -2.60954301       2.25106523
C        7.68103612      -1.90657340       1.27159307
C        6.52633030      -1.24484251       1.71552462
C        5.71431549      -0.55820484       0.80796217
C        6.04879945      -0.52388653      -0.55772377
O        5.26831148       0.16721839      -1.49623935
C        3.87858448       0.34399636      -1.42591719
C        3.03433829      -0.61893257      -0.84598771
C        1.65231899      -0.41328891      -0.80879259
C        1.09213800       0.75550871      -1.34443939
N       -0.33404244       0.93240046      -1.31166442
C       -0.98349630       2.20391938      -1.15104436
O       -0.31873107       3.23121049      -0.84696280
C       -2.47657252       2.30597324      -1.26761351
C       -3.16052627       2.36879436       0.10804874
C       -2.95442650       1.11317094       0.98016729
C       -3.67365166      -0.13755994       0.45040732
N       -5.12886826       0.00661981       0.51089249
C       -6.00083703      -1.00897702      -0.00698973
O       -5.51560649      -2.05595337      -0.51630723
C       -7.49709565      -0.84565937       0.05111497
C       -7.99017088      -0.80147557       1.50318813
N       -7.90184387       0.35242612      -0.68745172
C        1.93468999       1.69740645      -1.96080243
C        3.31673454       1.48975447      -1.99888591
C        7.22120000      -1.15290994      -0.99131941
C        8.03380207      -1.84022805      -0.08467591
H        9.09564055      -3.46040037       1.76396669
H        9.32879379      -1.89565590       2.64051938
H        7.98203726      -3.01138371       3.10132231
H        6.25791778      -1.25505733       2.76480313
H        4.84042337      -0.03624574       1.17495616
H        3.44043672      -1.53695768      -0.44210580
H        1.01568913      -1.16428750      -0.35780641
H       -0.93213352       0.07538198      -1.30433575
H       -2.87634711       1.46379557      -1.86905801
H       -2.72228314       3.23559501      -1.82508928
H       -4.24586245       2.55002856      -0.04196970
H       -2.76499440       3.24869705       0.66129987
H       -1.86967394       0.89536989       1.07769325
H       -3.32724993       1.32840703       2.00528355
H       -3.35967430      -0.35303073      -0.59135903
H       -3.37530109      -1.00687185       1.07511316
H       -5.54864567       0.85179348       0.95875303
H       -7.96594100      -1.72983286      -0.43729701
H       -7.68088758      -1.72453918       2.03874542
H       -9.09900487      -0.74175160       1.52356317
H       -7.57870880       0.07959206       2.03957555
H       -8.94532686       0.35920778      -0.76208959
H       -7.62855937       1.20843235      -0.15193488
H        1.52630641       2.57897032      -2.43634681
H        3.95466919       2.22250473      -2.47668164
H        7.50110256      -1.11235717      -2.03639437
H        8.93752492      -2.31976835      -0.44027300
