59
Properties=species:S:1:pos:R:3 049402=T pbc="F F F"
C       -6.02909975      -1.23163929       0.61309727
C       -5.16340079      -0.22822838      -0.14732474
C       -4.36400548       0.70055023       0.78330002
C       -3.36279024      -0.01555668       1.71220039
C       -2.30736031      -0.87499487       0.99358851
C       -1.43037223      -0.05307520       0.02891884
C       -0.21497496      -0.84495503      -0.51612147
C        0.90734929      -1.16616486       0.52387437
C        1.47355547       0.04644484       1.26959190
C        0.76284502       0.58895067       2.35910897
C        1.24942942       1.70144484       3.05099210
C        2.46773801       2.27461703       2.68713924
C        3.21091409       1.72291187       1.64413740
C        2.72820250       0.60999883       0.95025471
C        1.99460983      -2.00903875      -0.12100993
C        2.83551270      -2.79313599       0.68840067
C        3.86438060      -3.54672509       0.11927598
C        4.06755873      -3.52383296      -1.26112552
C        3.24268653      -2.74705856      -2.07765274
C        2.20683366      -1.98323462      -1.51922140
N        1.36263434      -1.19623352      -2.37790612
C        0.34490592      -0.27884794      -1.85638867
C        0.86358039       1.16032619      -1.81096434
C       -0.04443462       2.23421578      -1.71196146
C        0.40889349       3.55582793      -1.67530787
C        1.77222917       3.83207200      -1.77287131
C        2.68255577       2.78807266      -1.93185957
C        2.23422427       1.46473248      -1.96923684
H       -6.68268785      -1.77250352      -0.10336092
H       -5.39573405      -1.97948930       1.13393958
H       -6.67134989      -0.70874853       1.35323061
H       -5.83139246       0.40230339      -0.77310139
H       -4.48502453      -0.76702110      -0.84124101
H       -3.82433074       1.44964047       0.16552293
H       -5.07791402       1.27308177       1.41486198
H       -2.83926075       0.75447943       2.32026411
H       -3.91841821      -0.65543599       2.43027664
H       -2.79879155      -1.70462558       0.44289828
H       -1.68338618      -1.34850679       1.77620579
H       -1.10206992       0.89164445       0.50672512
H       -2.07813019       0.21401861      -0.83177858
H       -0.63559712      -1.83849884      -0.80085573
H        0.44836006      -1.82428300       1.29303091
H       -0.17116238       0.15293100       2.68092739
H        0.68253768       2.11579554       3.87451935
H        2.84357840       3.13607806       3.22378470
H        4.16712752       2.15339376       1.37592201
H        3.34808869       0.18992254       0.17220120
H        2.69658056      -2.81337193       1.76230796
H        4.50726890      -4.14691312       0.75007930
H        4.86622452      -4.10828165      -1.69942455
H        3.41190368      -2.73802075      -3.14693546
H        1.53397705      -1.20363544      -3.40931635
H       -0.49479091      -0.28739190      -2.58741210
H       -1.10959673       2.06160101      -1.68521941
H       -0.30077977       4.36795780      -1.58407817
H        2.12136294       4.85614574      -1.74555369
H        3.73865492       3.00352232      -2.03059506
H        2.97055149       0.68676792      -2.11275381
