60
Properties=species:S:1:pos:R:3 052396=T pbc="F F F"
C        5.03118442      -3.43407676       1.12243013
O        4.56665799      -2.09266257       1.03611942
C        4.01868008      -1.56020031      -0.13430121
O        3.90552770      -2.27155581      -1.17074474
C        3.51228851      -0.14232116      -0.13148825
O        3.61832014       0.41823542      -1.43176163
C        4.87527542       1.03545730      -1.60483667
C        2.03353763      -0.11073366       0.33821056
N        1.19488529      -0.90345804      -0.57664158
C        0.01666598      -1.65103663      -0.20437670
C       -0.74670500      -2.25576719      -1.21624744
C       -1.90745499      -2.96996975      -0.90878946
C       -2.32620552      -3.10045765       0.42684883
O       -3.48617689      -3.80176875       0.78762434
C       -4.36021757      -4.43921894      -0.13808257
C       -1.56462837      -2.50965285       1.43893763
C       -0.40708791      -1.78796882       1.13319116
C        1.47939917       1.33275616       0.42333011
C        2.19906428       2.10581047       1.44799397
N        2.76429218       2.71496474       2.25326164
O        0.11431156       1.28250223       0.79322515
Si      -0.89141084       2.26674480      -0.23116221
C       -0.89166867       1.57892512      -1.97505919
C       -0.24181082       4.02512901      -0.27849072
C       -2.65519593       2.24156862       0.47880081
C       -3.10830723       0.78248540       0.65716149
C       -2.66013288       2.94566957       1.84661628
C       -3.61858642       2.96570223      -0.47712235
H        4.19658254      -4.13869424       0.92109909
H        5.84894504      -3.60110312       0.38973243
H        5.42016790      -3.62007988       2.14444903
H        4.11132239       0.42385346       0.62237703
H        4.96257860       1.37167548      -2.65820221
H        4.96485708       1.93334111      -0.95451367
H        5.70883721       0.32557259      -1.40544324
H        2.02274992      -0.55964509       1.35299143
H        1.38195360      -0.79631825      -1.60000194
H       -0.44582709      -2.16544195      -2.25253248
H       -2.47175568      -3.41461777      -1.71699851
H       -5.19528675      -4.91191658       0.41828389
H       -3.81429916      -5.22782641      -0.69778518
H       -4.78075022      -3.69121388      -0.84303342
H       -1.87978123      -2.59915394       2.47093346
H        0.12551568      -1.33235945       1.95247869
H        1.66941013       1.82406348      -0.55778826
H       -1.50759942       2.22736415      -2.63030113
H        0.14298689       1.54997534      -2.37176658
H       -1.30974094       0.55289420      -1.97412577
H       -0.95166058       4.67193589      -0.83217863
H        0.74084382       4.05010036      -0.79145313
H       -0.12185351       4.40583567       0.75611140
H       -3.08720480       0.23629288      -0.30987077
H       -2.44730522       0.25500534       1.37606758
H       -4.14587712       0.74127407       1.05315006
H       -1.94283726       2.45910622       2.54263793
H       -3.67195608       2.90097352       2.30438668
H       -2.37955944       4.01539731       1.74238664
H       -3.65802211       2.45417034      -1.46211485
H       -4.64743424       2.97620339      -0.05683459
H       -3.30250126       4.01823355      -0.63678777
