64
Properties=species:S:1:pos:R:3 053779=T pbc="F F F"
C        3.26054175       0.78732152       1.76437928
O        3.39966715       0.96803792       0.37066808
N        3.04333293      -0.19504755      -0.24781251
C        1.65034313      -0.44932251      -0.52881719
O        1.29079890      -1.56766035      -0.98912741
C        0.62537638       0.58553214      -0.27507527
C        0.80000932       1.85352552      -0.84321021
C       -0.14022084       2.85630051      -0.63152921
C       -1.28166145       2.59910894       0.12304900
C       -1.51480281       1.32277964       0.66834961
C       -0.51752181       0.32357296       0.52293400
C       -0.66394372      -1.00655841       1.22471736
C       -1.64993099      -0.91950465       2.38498621
N       -2.92440972      -0.32891507       1.95104678
C       -3.74013465      -1.22342469       1.08618338
C       -3.81684517      -0.75982300      -0.39244812
C       -4.70635234      -1.69542533      -1.23059499
C       -6.19986571      -1.54766425      -0.89523210
C       -6.57736886      -0.11765806      -0.47374998
N       -5.65303973       0.86343710      -1.05460002
C       -4.27309315       0.72627060      -0.53483351
C       -4.06784036       1.52530936       0.77156864
C       -2.78088245       1.07904595       1.49881585
C        4.08232041      -1.13009079      -0.71974521
C        4.25402037      -2.29749899       0.26263103
C        5.38957863      -0.40526182      -1.00323157
C        5.71223128      -0.05000156      -2.32672115
C        6.88980042       0.65120616      -2.60873036
C        7.75317163       1.01635696      -1.57303527
C        7.43782437       0.68366923      -0.25323172
C        6.26332717      -0.01799794       0.03387436
H        4.19541080       1.11176793       2.26406408
H        2.43286573       1.43170123       2.12920719
H        3.04546302      -0.26070125       2.07735541
H        1.66837377       2.06799207      -1.45463167
H        0.01571206       3.83987534      -1.05722744
H       -1.97996188       3.40911061       0.28462470
H        0.31633033      -1.32867409       1.63891034
H       -0.99811242      -1.77372499       0.49587524
H       -1.21293173      -0.29241118       3.19146968
H       -1.81691299      -1.92847042       2.81929522
H       -4.76036564      -1.26120031       1.51836280
H       -3.36288475      -2.27032170       1.11551951
H       -2.79064964      -0.84386456      -0.81258195
H       -4.39331783      -2.75306872      -1.09108663
H       -4.55569117      -1.45097755      -2.30522995
H       -6.79224682      -1.83988270      -1.78955211
H       -6.46774241      -2.25017857      -0.07474833
H       -6.59291753      -0.03515367       0.63365691
H       -7.60803756       0.10080543      -0.82754633
H       -6.01624728       1.82527136      -0.85198767
H       -3.60714991       1.18989788      -1.29704396
H       -4.05303842       2.61225132       0.55424668
H       -4.92589319       1.36214937       1.45811604
H       -2.69211982       1.71245172       2.40928852
H        3.73939222      -1.58468499      -1.67759817
H        5.04460751      -2.98741045      -0.09830969
H        3.30509945      -2.86990115       0.33828274
H        4.52461617      -1.94161011       1.27592608
H        5.05103895      -0.31624483      -3.14191575
H        7.13526339       0.91119767      -3.63137679
H        8.66469486       1.55954321      -1.79194100
H        8.10366707       0.97129495       0.55137663
H        6.03925563      -0.24644841       1.06572189
