56
Properties=species:S:1:pos:R:3 053098=T pbc="F F F"
C       -3.89898042       2.15727635      -1.01697288
C       -2.93773554       1.03090956      -0.60700876
C       -3.40716496      -0.32845081      -1.14519626
C       -3.87785944      -1.14084804       0.05375233
C       -3.14876912      -0.58412210       1.26544728
C       -2.85080582       0.87710512       0.93079913
C       -1.56392400       1.39425365       1.58538256
C       -1.72245041       2.21824688       2.72119386
C       -0.62297086       2.75893965       3.38532807
C        0.66432380       2.48733803       2.93898731
C        0.85886814       1.66530305       1.83251451
C       -0.23239257       1.09709880       1.14635306
C        0.09333632       0.22006618      -0.00737680
O       -0.46318044      -0.89909002      -0.11639948
C        1.08589030       0.65111760      -1.02419563
C        0.94363066       1.95800569      -1.53051980
C        1.80763263       2.45067318      -2.50451878
C        2.83298496       1.65067365      -2.99284926
C        3.00788478       0.35914189      -2.49951216
C        2.16079898      -0.16783669      -1.50004450
C        2.48421434      -1.58337745      -1.00749208
C        1.50386169      -2.65667453      -1.49524442
C        1.25671660      -3.58857433      -0.30823868
C        2.28255941      -3.22224617       0.75799288
C        2.61513089      -1.75412346       0.51508198
C        4.00678052      -1.37764200       1.03748268
H       -4.93089052       1.94499524      -0.66253742
H       -3.91503899       2.25963797      -2.12309702
H       -3.55832047       3.12144504      -0.58273943
H       -1.95898350       1.28142680      -1.05807445
H       -4.22096515      -0.23903346      -1.89845616
H       -2.55627414      -0.85176292      -1.63271115
H       -3.66531038      -2.22336581      -0.08263512
H       -4.97346787      -0.99943457       0.18578905
H       -2.22800711      -1.16825067       1.46248590
H       -3.78731862      -0.66298995       2.17307860
H       -3.70984735       1.44295344       1.36132402
H       -2.70921168       2.45369041       3.10070086
H       -0.77163660       3.39252805       4.25031426
H        1.51638816       2.90918231       3.45636222
H        1.87494842       1.45801566       1.51766249
H        0.14649846       2.60148055      -1.17781994
H        1.67697899       3.45518164      -2.88601581
H        3.49998828       2.03356290      -3.75458509
H        3.82326658      -0.22973173      -2.90135399
H        3.47100543      -1.88610751      -1.43052347
H        1.95688393      -3.23109605      -2.33398358
H        0.55131842      -2.23150235      -1.87389731
H        0.23161951      -3.42910546       0.09109862
H        1.35887624      -4.65485405      -0.60585194
H        1.87623781      -3.38264350       1.78046790
H        3.18704242      -3.85680781       0.62214615
H        1.87812506      -1.14653167       1.06929269
H        4.05227649      -1.53441620       2.13615982
H        4.79633421      -1.99363956       0.55600517
H        4.20910351      -0.30599040       0.82664793
