61
Properties=species:S:1:pos:R:3 054645=T pbc="F F F"
C        0.63750947       3.63856605      -0.80787807
C        1.78395054       2.72766203      -1.29295437
C        3.09927506       3.20469901      -0.65761618
C        1.92187590       2.78876040      -2.82584253
O        1.57127672       1.37657288      -0.86315590
C        0.47678616       0.56213390      -1.19472759
O       -0.45403710       1.00260135      -1.92057959
N        0.42799774      -0.79213729      -0.70758081
C       -0.86415595      -1.49669224      -0.62518023
C       -1.14024827      -2.13438774       0.75569918
C       -1.48793240      -1.20377699       1.96288214
C       -0.28571501      -0.54101637       2.58992273
O        0.61419510       0.09096229       1.97875455
C       -0.32266675      -0.68368213       4.02950907
O        0.54155258      -0.04401716       4.91162122
C       -1.28850968      -1.50711600       4.38028941
C       -1.92366561      -2.11798342       3.16885151
C       -3.39913401      -2.32176026       3.33471284
O       -3.81646782      -3.25063754       4.07778219
N       -4.33690670      -1.48430544       2.66532814
C       -3.91536100      -0.34423578       1.91505018
C       -4.87423071       0.60902291       1.53530225
C       -4.49220064       1.77558441       0.87821025
C       -3.14842726       2.00438699       0.59738655
C       -2.18749813       1.06150884       0.96626243
C       -2.54909700      -0.13998700       1.61589461
C        1.69563417      -1.52469560      -0.54341008
C        2.40846704      -1.65329043      -1.86556530
C        3.48482229      -0.80591851      -2.18476895
C        4.10686524      -0.89597473      -3.43460790
C        3.66461073      -1.83486526      -4.37137428
C        2.59832948      -2.68495949      -4.05943525
C        1.96769533      -2.59218855      -2.81397496
H        0.47475638       3.49809163       0.28340043
H        0.88108443       4.70690000      -0.99675487
H       -0.31317690       3.41299927      -1.33241979
H        3.93950682       2.55204706      -0.98070829
H        3.32858454       4.25198217      -0.95423794
H        3.03360559       3.15593228       0.45191134
H        0.97852455       2.49303211      -3.32759980
H        2.16924641       3.82059932      -3.15609255
H        2.72676458       2.10210504      -3.16555816
H       -0.86909064      -2.30440619      -1.38820723
H       -1.70945338      -0.83213548      -0.89173852
H       -0.30267268      -2.80468932       1.04043840
H       -2.01553353      -2.80639644       0.60332019
H        0.47686349      -0.19798322       5.91313428
H       -1.49050299      -1.80052187       5.40342782
H       -1.46622077      -3.12897434       3.06917623
H       -5.35946067      -1.65405929       2.82157886
H       -5.92085821       0.45616975       1.77259243
H       -5.23729713       2.50884818       0.59723899
H       -2.84959646       2.91839640       0.10221532
H       -1.15920150       1.28629416       0.74896570
H        1.52329228      -2.54769224      -0.14839066
H        2.33565937      -1.00226031       0.20086510
H        3.83897614      -0.07169837      -1.47200357
H        4.93068451      -0.23545164      -3.67770224
H        4.14816261      -1.90122622      -5.33895222
H        2.25494843      -3.41350860      -4.78384031
H        1.13781524      -3.25122699      -2.58886617
