49
Properties=species:S:1:pos:R:3 056203=T pbc="F F F"
C        4.53798481       3.56297754       0.87001123
O        4.33092728       2.53219729      -0.06869364
C        5.40190528       1.61456415      -0.00058838
C        5.15704505       0.46375859      -0.97643411
N        3.95771818      -0.29151695      -0.60894583
C        2.63198449       0.08365561      -0.92318182
O        2.34286149       0.98054303      -1.76019485
N        1.67186039      -0.64480553      -0.18229217
C        0.25591927      -0.40226580      -0.14956023
N       -0.30973090       0.49787758      -0.99953849
C       -1.64643236       0.73772116      -0.98235213
C       -2.46353694       0.05341210      -0.08064284
C       -3.88195921       0.29140780      -0.04439603
C       -5.07053495       0.49092398      -0.01390766
C       -6.48926650       0.72915745       0.02258683
C       -7.32359759       0.15329189      -0.94538049
C       -8.70254575       0.38575949      -0.90865639
C       -9.25074917       1.19291090       0.09364393
F      -10.58738167       1.41738596       0.12804097
C       -8.41967466       1.76843646       1.06044594
C       -7.04037502       1.53769238       1.02620020
C       -1.87063743      -0.86728823       0.78520602
N       -0.52969598      -1.07618668       0.73441754
C        2.39174702      -1.56878088       0.69740296
C        2.11527763      -3.02519997       0.31958559
C        3.27866619      -3.45961679      -0.55493190
C        4.47031604      -2.64768148      -0.07865803
C        3.89957468      -1.32370113       0.42807720
H        3.70006205       4.28562759       0.79137966
H        5.48055073       4.11666237       0.66137028
H        4.54183275       3.16503567       1.90916779
H        6.35613161       2.11153477      -0.28894691
H        5.50869153       1.19577368       1.02623177
H        6.03853721      -0.21210730      -0.96602417
H        5.05090022       0.86154897      -2.00886603
H       -2.06780140       1.45980613      -1.67043298
H       -6.90887109      -0.47338426      -1.72584476
H       -9.34499070      -0.05994542      -1.65715678
H       -8.84312381       2.39316875       1.83635459
H       -6.40530272       1.98809170       1.77964038
H       -2.46977830      -1.41845037       1.49910169
H        2.13437843      -1.36760157       1.76101479
H        2.09966122      -3.64588060       1.24245347
H        1.14770060      -3.15379797      -0.21210666
H        3.46882380      -4.55106539      -0.46584321
H        3.05911196      -3.20944321      -1.61659576
H        5.21172601      -2.51046002      -0.89496517
H        4.96256666      -3.18067454       0.76447080
H        4.42152359      -0.98106888       1.34833379
