43
Properties=species:S:1:pos:R:3 056403=T pbc="F F F"
C       -6.14196544       1.07675331       0.29306108
C       -4.98169479       0.78817309       1.24557537
C       -3.63440740       0.64887191       0.51950532
C       -3.52468459      -0.66668195      -0.27065167
C       -2.18163758      -0.80299083      -1.00609234
C       -1.01276974      -1.10605404      -0.05632321
C        0.28051333      -1.35861712      -0.84099074
C        1.45357740      -1.64088375       0.11000392
C        2.76270281      -1.98359987      -0.63306174
C        3.58498847      -0.76971875      -1.11710310
O        2.85564659      -0.00004045      -2.06701085
C        2.74375394       1.29446903      -1.60162689
O        2.14582418       2.21342192      -2.22015281
C        3.40229523       1.42521653      -0.32051754
C        3.51298258       2.69122602       0.47429219
C        3.91244764       0.22631269      -0.01889870
C        4.73660087      -0.09671634       1.16606519
O        5.29523669      -1.22276439       1.25005351
O        4.90781572       0.82598697       2.19345842
H       -5.91678608       1.96283845      -0.33771814
H       -7.05853061       1.28838816       0.88306291
H       -6.34658451       0.20148749      -0.35705031
H       -4.90661829       1.63276645       1.96455902
H       -5.19896076      -0.13170161       1.83088648
H       -3.48166939       1.51594180      -0.15993645
H       -2.83642198       0.68019218       1.29047415
H       -3.67173031      -1.53374488       0.40998857
H       -4.32835818      -0.69955760      -1.03596929
H       -2.27395053      -1.63795055      -1.73513856
H       -1.97162318       0.12455307      -1.58290536
H       -0.85243738      -0.24613194       0.62799321
H       -1.25418693      -2.00498874       0.55254477
H        0.13547015      -2.23054807      -1.51602524
H        0.49782223      -0.46609223      -1.46119967
H        1.60210114      -0.78190009       0.79824069
H        1.18368063      -2.51690431       0.74004251
H        3.40141407      -2.58181731       0.05121967
H        2.54254169      -2.64070182      -1.50225897
H        4.52848478      -1.12361313      -1.58635951
H        4.58122636       2.96407135       0.60305172
H        3.03620760       2.55518095       1.46735365
H        2.99870396       3.52433936      -0.04859156
H        5.47297961       0.60352904       3.00415030
