37
Properties=species:S:1:pos:R:3 056279=T pbc="F F F"
C        3.37364888      -2.15318543       1.38316069
C        3.23920324      -1.48410753       0.38951198
C        3.07233549      -0.66660492      -0.82284736
C        2.15821668       0.56883746      -0.58830609
C        2.79477895       1.50046240       0.47240700
C        2.04529807       1.31014631      -1.88535301
O        2.96998827       1.93399023      -2.38564963
C        0.72211373       1.20609211      -2.53518593
C       -0.01817573       0.17377859      -1.69826919
C        0.67132461       0.12303137      -0.31241354
C       -0.12732195       0.97226817       0.72904678
C       -1.20914261       0.17448438       1.48700252
C       -2.37739171      -0.28862461       0.60785523
C       -3.49007792      -0.91348510       1.45773587
C       -4.64585726      -1.39431939       0.58504384
H        3.49096389      -2.74001910       2.25586922
H        4.08036402      -0.34065958      -1.16004974
H        2.64728760      -1.31326719      -1.62127301
H        3.84996370       1.72727201       0.20658182
H        2.79724083       1.01926584       1.47333313
H        2.25471441       2.47033305       0.52987719
H        0.20938426       2.19126799      -2.49505987
H        0.82209433       0.86546856      -3.58835240
H       -1.09495806       0.43344860      -1.65829101
H        0.07488380      -0.82239308      -2.18555179
H        0.65869113      -0.93113101       0.04308533
H       -0.57451548       1.87085548       0.24990701
H        0.53599664       1.34442776       1.53049319
H       -0.74268063      -0.70649082       1.98060133
H       -1.60980365       0.82947032       2.29231197
H       -2.78972819       0.58137469       0.05116410
H       -2.01459360      -1.05105113      -0.11437852
H       -3.87599500      -0.16353482       2.18228597
H       -3.08572394      -1.77840455       2.02773151
H       -5.43562251      -1.83941187       1.22622563
H       -4.29319775      -2.16648094      -0.13154756
H       -5.08370656      -0.54310426       0.02129737
