89
Properties=species:S:1:pos:R:3 057203=T pbc="F F F"
C       -2.62908066      -4.43594324       1.11399049
C       -1.82101212      -3.17191127       0.96283180
C       -0.58367878      -3.17778685       0.41683159
C        0.07843579      -4.37937614      -0.21550427
C       -0.10750198      -4.38464754      -1.74167295
C        0.45394127      -3.12878174      -2.38524055
C        1.95079342      -2.95529488      -2.43727329
C       -0.39765909      -2.17342672      -2.82750745
C        0.00501228      -0.79957884      -3.31624488
C       -0.61521237       0.22934376      -2.39921342
C        0.01037605       0.59308838      -1.25193727
O        1.36840763       0.26899559      -1.08808705
C        2.03192303       0.13463497       0.13439886
O        1.42701649      -0.32991086       1.13664698
C        3.47951402       0.51845593       0.27261916
C        3.70871878       1.63726217       1.32441865
C        5.15940961       2.09055300       1.01796513
C        5.55693651       1.17743924      -0.16565661
C        6.81743102       1.61038618      -0.92230093
C        5.60484818      -0.19674630       0.43155303
O        6.62931576      -0.86299349       0.74050472
O        4.29675259      -0.58578278       0.68647412
C        4.23864963       1.05237372      -0.97609388
C        4.32258302       0.01985883      -2.14182616
C        3.70689557       2.38941178      -1.57581553
C       -0.73709399       1.37327742      -0.21860241
O       -0.13588938       1.86374919       0.77027645
C       -2.17822656       1.63585497      -0.42424421
C       -2.74649759       1.34716131      -1.57492631
O       -4.09744019       1.64585526      -1.58496149
C       -4.47183281       2.25012652      -0.34825615
C       -4.62630607       3.76493683      -0.58899417
C       -5.79579286       1.64877412       0.14215309
C       -3.27311473       1.87084888       0.58176699
C       -2.94494412       2.79453630       1.79574917
C       -3.24157093       2.12706926       3.16111311
C       -2.50075433       0.81152094       3.34864281
C       -1.01565564       0.83997719       3.60714568
C       -3.17277374      -0.35635814       3.20244827
C       -2.51492700      -1.68175602       2.89827907
C       -2.44283387      -1.85548253       1.37405718
C       -2.01378074       0.67910209      -2.65453817
O       -2.58184209       0.45390171      -3.75554335
H       -2.10859617      -5.13696701       1.79985028
H       -2.77315109      -4.91708785       0.12373386
H       -3.63151018      -4.21817233       1.53896556
H       -0.05367362      -2.23856570       0.31165872
H        1.16244074      -4.34754131       0.02526724
H       -0.30918055      -5.33131358       0.20458666
H       -1.18782663      -4.51030977      -1.97488925
H        0.41309956      -5.26970063      -2.16529552
H        2.27960801      -2.74553972      -3.47704588
H        2.46921332      -3.87655331      -2.09525381
H        2.25429061      -2.12608926      -1.76798208
H       -1.46782255      -2.36323785      -2.77055027
H        1.10306504      -0.66601224      -3.37794475
H       -0.37617209      -0.66832612      -4.35079071
H        2.98684457       2.47476339       1.20949503
H        3.62717886       1.23180155       2.35709939
H        5.82395533       1.93854416       1.89775096
H        5.19857555       3.16555366       0.73792043
H        7.08550342       0.86396403      -1.70086792
H        6.65499504       2.59854979      -1.40337411
H        7.66863340       1.70108742      -0.21350358
H        5.07193843       0.34885408      -2.89200831
H        3.34873757      -0.05644747      -2.66481511
H        4.59928001      -1.00057057      -1.80710777
H        3.59007882       3.21032773      -0.84338740
H        4.39943150       2.75062787      -2.36516452
H        2.71416037       2.23271599      -2.04859555
H       -5.26431348       3.94108946      -1.48136431
H       -5.11321368       4.26577861       0.27423807
H       -3.63623391       4.23233659      -0.77730994
H       -6.04524044       2.04014072       1.15083681
H       -5.72299325       0.54202009       0.19913734
H       -6.61936398       1.90223855      -0.55872300
H       -3.49730484       0.85708414       0.96048826
H       -1.88984542       3.12380378       1.78002619
H       -3.53105945       3.73107203       1.76233158
H       -2.94604875       2.82296395       3.97461693
H       -4.33989423       1.98158582       3.25651283
H       -0.63859559       1.88344814       3.65276877
H       -0.79810255       0.35031138       4.57898283
H       -0.47399983       0.30639472       2.80215545
H       -4.24777811      -0.32166303       3.04368789
H       -1.50283587      -1.75850103       3.34735815
H       -3.13721834      -2.49062845       3.33755533
H       -3.46720298      -1.80115486       0.94383297
H       -1.87339157      -1.00539376       0.93969041
