23
Properties=species:S:1:pos:R:3 061313=T pbc="F F F"
C       -2.59203355       1.23143868       1.08532956
C       -1.48937881       1.32058589       0.07349453
O       -0.79831626       2.32649715       0.02336988
C       -1.27693184       0.20509014      -0.92157416
C       -0.02521093      -0.65781603      -0.64901131
C        0.06155320      -1.16435387       0.78914488
O        0.53554257      -0.20954054       1.71516852
C        1.47362101      -1.12423740       1.19568836
C        2.30303478      -0.54114818       0.06167419
C        1.31017146       0.04111561      -0.94895511
O        1.71670153      -0.21842085      -2.26726218
H       -3.57371532       1.25030359       0.56777289
H       -2.54261722       2.08430934       1.79550521
H       -2.49962707       0.28532643       1.65847048
H       -1.21755592       0.63439163      -1.94511924
H       -2.16527544      -0.46386600      -0.90764970
H       -0.09758161      -1.56174852      -1.29524123
H       -0.57185006      -1.96763176       1.21999072
H        1.84048334      -1.86895809       1.93235613
H        2.89869139      -1.35947208      -0.39800733
H        2.99059152       0.24281586       0.44535191
H        1.22895262       1.13828078      -0.78441589
H        2.49075060       0.37703819      -2.44608110
