47
Properties=species:S:1:pos:R:3 061812=T pbc="F F F"
C        4.94354489       0.88217927       1.60859195
C        4.66759764       0.65497742       0.12240493
C        3.47016518      -0.27854406      -0.13724808
C        2.10071329       0.27085041       0.34559314
C        1.69776207       1.55380218      -0.39572987
C        0.99782787      -0.82180419       0.29380519
C        0.52648870      -1.25644450      -1.12521185
C        0.35452645      -2.78529746      -1.20185260
C       -0.69504407      -0.47803470      -1.71981426
C       -2.05081461      -0.35317263      -0.94822330
C       -2.45184220      -1.61911232      -0.18060959
C       -2.13323713       0.94859340      -0.09667831
C       -3.51666452       1.29783074       0.50971435
C       -4.63239420       1.34510199      -0.53632340
O       -3.87945987       0.38991607       1.55126288
C       -3.28862511       0.38778154       2.81907478
O       -2.42135428       1.24457748       3.13753345
H        5.91956641       1.39825941       1.72713586
H        4.16111949       1.52646346       2.05981047
H        4.98834011      -0.08637590       2.15043669
H        4.52537088       1.63064305      -0.38709949
H        5.57031438       0.18623839      -0.32631524
H        3.43286963      -0.47633103      -1.22883682
H        3.67565896      -1.25213954       0.35951430
H        2.19820013       0.53530889       1.42009844
H        0.66475246       1.85011367      -0.12534952
H        1.76980163       1.41794932      -1.49494285
H        2.36121374       2.39291296      -0.10125157
H        0.14368280      -0.51292006       0.91499744
H        1.40123782      -1.70617078       0.83577191
H        1.35445877      -1.04855035      -1.83446146
H        1.35289141      -3.27235081      -1.16490003
H       -0.13274950      -3.08918129      -2.15237883
H       -0.22868377      -3.17727443      -0.34514340
H       -0.92350854      -0.94920143      -2.70199481
H       -0.35722428       0.53973866      -2.00244522
H       -2.81190935      -0.23775747      -1.75019844
H       -1.83093678      -1.75542909       0.72773534
H       -2.37015930      -2.50566545      -0.84201626
H       -3.51659690      -1.57173818       0.12191216
H       -1.40218622       0.92595403       0.72834609
H       -1.83944916       1.80522068      -0.74227715
H       -3.44462094       2.32129404       0.94265870
H       -5.54513636       1.78843930      -0.08476189
H       -4.32824920       1.97308327      -1.40068439
H       -4.88880140       0.32512147      -0.89082371
H       -3.58845707      -0.35885542       3.54117431
