84
Properties=species:S:1:pos:R:3 062288=T pbc="F F F"
C       -8.86068330       0.91037321      -0.50417684
C       -7.71236205       0.42943162      -1.35721030
C       -7.72784935      -0.97642696      -1.90032809
C       -6.66768741       1.22722182      -1.66953105
C       -6.47804118       2.63822663      -1.16281585
C       -5.81361566       2.67026834       0.22257787
C       -4.48794722       1.93789507       0.23031496
C       -4.40819883       0.57575343       0.88081674
C       -3.41247579       2.51251198      -0.35630431
C       -2.06854081       1.84445936      -0.49444519
C       -2.01121775       1.00713202      -1.77808115
C       -0.80587598       0.09181328      -1.77828834
C       -1.01679214      -1.39130923      -1.58147425
C        0.42734934       0.62010135      -1.96145981
C        1.69366728      -0.19845196      -2.07694995
C        2.92607557       0.46531688      -1.41172831
C        3.14529052       0.36316139       0.15620023
C        1.79260598       0.61415876       0.89674158
O        1.23536515       1.85534813       0.55818460
C        3.72842816      -1.06356623       0.59341851
C        3.01108527      -2.38012626       0.14390737
C        3.52398356      -2.97541340      -1.18885589
C        4.79675145      -3.81128664      -1.01454228
O        4.49541058      -5.00851312      -0.35243721
C        4.10283106      -1.04829563       2.08876249
C        3.39127250      -1.60697293       3.12400026
C        3.93246689      -1.57883716       4.53757250
C        2.03095206      -2.17518664       2.96311214
O        1.60641046      -3.07115180       3.74132231
C        5.22992149      -0.08345180       2.36415212
C        4.71457652       1.32154567       2.05640190
C        4.22165111       1.50031951       0.58799466
C        5.48851094       1.53026505      -0.32811892
O        3.63148919       2.78387523       0.55579123
H       -9.62652786       0.11810773      -0.36667554
H       -9.35620058       1.77735570      -0.98764794
H       -8.49859924       1.19915992       0.50125588
H       -7.72780130      -0.95107522      -3.01055205
H       -6.82668511      -1.52195142      -1.54878640
H       -8.62457259      -1.53822098      -1.56430576
H       -5.88277861       0.83477661      -2.31264943
H       -7.44528588       3.18315673      -1.12961123
H       -5.83246561       3.18476375      -1.88410786
H       -6.50066025       2.23451999       0.97603764
H       -5.65322738       3.72793630       0.52628041
H       -3.69719069       0.59828950       1.73462260
H       -5.39768007       0.25499479       1.26727347
H       -4.07632460      -0.18251257       0.14265850
H       -3.51959700       3.49284384      -0.81267765
H       -1.84637583       1.21736464       0.39505973
H       -1.28734364       2.63396826      -0.54323013
H       -1.97502874       1.67670549      -2.66459278
H       -2.94092450       0.40869012      -1.87569877
H       -0.49469591      -1.72887925      -0.66212497
H       -0.63217226      -1.95153936      -2.46007137
H       -2.09287995      -1.64013731      -1.46296074
H        0.51323905       1.68931197      -2.13800214
H        1.90840932      -0.28487316      -3.16429051
H        1.54756011      -1.22637957      -1.73415825
H        2.89339487       1.52856944      -1.72058712
H        3.82717197       0.05617070      -1.91402727
H        1.06139949      -0.17662318       0.63619677
H        1.94165703       0.57810683       1.99792768
H        0.45562395       1.98432511       1.15787768
H        4.70451184      -1.13999780       0.07727254
H        3.16595331      -3.17385723       0.90398823
H        1.91739127      -2.24179978       0.09344754
H        2.73035291      -3.62505492      -1.62092085
H        3.72494510      -2.18092485      -1.93215723
H        5.56169697      -3.24104926      -0.44363564
H        5.21042207      -4.04204521      -2.02086927
H        5.35791890      -5.48727982      -0.23828355
H        3.32818383      -2.19566498       5.23504597
H        3.92309625      -0.53805475       4.92645202
H        4.96428382      -1.98890897       4.56088697
H        1.36413586      -1.82084726       2.19873392
H        6.10704746      -0.32837716       1.72993583
H        5.61281141      -0.10054678       3.40201134
H        5.52116498       2.05436276       2.28127036
H        3.89109902       1.56263610       2.76274648
H        6.00406763       0.55347572      -0.38783720
H        5.24004929       1.84491776      -1.36204926
H        6.22173459       2.27435682       0.05035694
H        3.58088771       3.10754526      -0.37935132
