81
Properties=species:S:1:pos:R:3 062869=T pbc="F F F"
C        3.11479927      -1.73353733      -3.27655653
O        3.61743002      -1.34077318      -2.00426003
C        4.37409170      -2.16456115      -1.15448613
C        4.78377334      -3.45558475      -1.54422514
C        5.53767759      -4.25039000      -0.67748844
C        5.89309466      -3.76976724       0.58268440
C        5.49511601      -2.49316287       0.98215875
C        4.72717765      -1.68443856       0.12603850
C        4.29864327      -0.30703929       0.58251905
C        2.78684546      -0.14906774       0.59010651
C        2.16838691       0.90568260      -0.12076038
O        2.93324197       1.92900632      -0.69104490
C        3.55559478       2.93395765       0.10493162
C        0.76750394       0.93247580      -0.27458046
C        0.11251146       2.01363756      -1.11148358
C       -0.00968757       3.31314925      -0.34690233
C       -0.79375744       3.35429185       0.82051270
C       -0.92345531       4.53784239       1.54804333
C       -0.28373584       5.69761961       1.11458190
C        0.48522467       5.68043625      -0.04988780
C        0.62834661       4.49250244      -0.79615764
O        1.39669966       4.45190658      -1.97181886
C        2.12672372       5.55421031      -2.50079729
C       -0.02065001      -0.03901757       0.36934851
C        0.58281683      -1.04640468       1.14298234
C        1.98112159      -1.08360267       1.27532300
O        2.57199661      -2.07168441       2.06785801
C        2.84296725      -1.85422803       3.44584458
C       -0.28196037      -2.05814907       1.86166827
C       -1.64712866      -2.23609696       1.17793610
O       -2.47972313      -3.02970410       1.98281355
C       -2.29495586      -0.85884239       0.96070595
C       -3.60879620      -0.98787338       0.22519629
C       -3.62959521      -1.20825205      -1.15993844
C       -4.84200249      -1.36212782      -1.83390659
C       -6.06010010      -1.30991995      -1.13064540
O       -7.29867791      -1.46250800      -1.77352313
C       -7.45922838      -1.68978615      -3.16984449
C       -6.04997460      -1.10290011       0.25779716
O       -7.27958668      -1.06270295       0.93426819
C       -7.42227841      -0.88114371       2.33999606
C       -4.82170266      -0.94503135       0.93007379
O       -1.41422439      -0.01446598       0.21923737
H        2.45297552      -2.61829324      -3.16744607
H        2.52392369      -0.89782472      -3.70360721
H        3.95438971      -1.96402115      -3.96502290
H        4.52716931      -3.85313138      -2.51646490
H        5.84749700      -5.24135424      -0.98539899
H        6.47731760      -4.38796255       1.25210662
H        5.77881790      -2.13937472       1.96505854
H        4.68305918      -0.08248993       1.60036588
H        4.78229776       0.41435069      -0.10609749
H        4.07370451       3.65596632      -0.55934203
H        4.29635089       2.49026723       0.79866641
H        2.79197352       3.47587981       0.69945527
H       -0.90017190       1.70481868      -1.44655219
H        0.69360577       2.13919090      -2.04892147
H       -1.30375956       2.46751156       1.17266741
H       -1.52265400       4.55616671       2.44919164
H       -0.38626307       6.61442100       1.68046383
H        0.96434672       6.59821755      -0.36191483
H        2.88443005       5.89893844      -1.76539269
H        2.65033451       5.23007679      -3.42274222
H        1.43383941       6.38327282      -2.75827649
H        1.90047899      -1.64410820       3.99293633
H        3.31179346      -2.76481189       3.87114298
H        3.54050950      -1.00033350       3.56872384
H       -0.43117573      -1.71725351       2.90933974
H        0.22476957      -3.04733748       1.88888455
H       -1.49449199      -2.72496584       0.18635241
H       -2.17856900      -3.96811630       1.86651450
H       -2.46425090      -0.38388100       1.95280993
H       -2.70442631      -1.26489094      -1.72004177
H       -4.82046964      -1.52467278      -2.90263640
H       -8.53951657      -1.78012406      -3.39981094
H       -6.95269852      -2.63330359      -3.46304647
H       -7.04354644      -0.83686851      -3.74642436
H       -6.91053994      -1.70272553       2.88545709
H       -8.50062858      -0.90146275       2.60007600
H       -7.00033705       0.09981207       2.64409908
H       -4.80064913      -0.79353791       2.00050902
