44
Properties=species:S:1:pos:R:3 063731=T pbc="F F F"
C        4.23874952       3.10003236       0.43801266
C        4.07966304       1.67322263      -0.07908649
C        2.76768944       1.04961660       0.41063571
C        2.61046219      -0.38499997      -0.11411297
C        1.31321331      -1.04226210       0.39920992
C        1.22726430      -2.50890465      -0.03989866
O        2.27608056      -3.26309125       0.56130980
C        2.44751767      -4.63085446       0.33281265
C        3.55982863      -5.35521141       1.01138999
O        1.64818718      -5.26586745      -0.40753248
N        0.14361293      -0.31828219      -0.10897798
C       -1.05471333      -0.14499020       0.65582867
O       -1.12179968      -0.56644084       1.84360728
O       -2.15015451       0.49484890       0.07006631
C       -3.37362528       0.71396460       0.76369562
C       -4.33738583       1.42012261      -0.14391740
C       -5.22364076       0.68475454      -0.94812944
C       -6.09539509       1.34474275      -1.82005782
C       -6.07934291       2.73966498      -1.90392988
C       -5.18817589       3.47688077      -1.11930694
C       -4.31512812       2.82074609      -0.24579643
H        5.19575126       3.52485420       0.06824816
H        4.25190848       3.10862764       1.54885928
H        3.40394428       3.73718783       0.07589359
H        4.09468088       1.68997084      -1.19080474
H        4.93992819       1.06461186       0.27559698
H        2.75930038       1.03736391       1.52293224
H        1.91554981       1.67113562       0.05821905
H        2.61096945      -0.37645735      -1.22673926
H        3.48444557      -0.98381336       0.22463467
H        1.32613910      -1.01256332       1.51183468
H        1.29987974      -2.57879607      -1.14782357
H        0.24842611      -2.93008139       0.27869373
H        3.17788863      -5.83750071       1.93492377
H        3.97649820      -6.13234274       0.33651272
H        4.36804744      -4.64292290       1.27964217
H        0.12502218      -0.03232258      -1.11433327
H       -3.79820422      -0.25999795       1.09224330
H       -3.18522144       1.32940069       1.67056247
H       -5.23952772      -0.39699431      -0.90014721
H       -6.78077698       0.77445722      -2.43352979
H       -6.75356864       3.24887397      -2.58030889
H       -5.17128135       4.55669964      -1.19060249
H       -3.62270672       3.40291697       0.34967029
