110
Properties=species:S:1:pos:R:3 063831=T pbc="F F F"
C      -13.71595714      -2.42140153      -0.87432035
C      -13.14399266      -3.29039484       0.24175018
C      -12.57169718      -2.47319368       1.41367004
C      -11.32025103      -1.65031739       1.04204676
C      -11.65469490      -0.16919039       0.78697175
C      -10.43865840       0.62989737       0.29021614
C       -9.38829029       0.84536408       1.39474840
C       -8.32611157       1.89155887       1.01110132
C       -7.48076241       1.53631917      -0.23005204
C       -6.65686340       0.23502994      -0.12964918
C       -5.45218089       0.24131013       0.84669370
O       -5.85935361       0.41100979       2.18077214
C       -4.34104879       1.25424562       0.46871495
C       -4.58093596       2.68346840       0.97457762
C       -3.37922420       2.97994863       1.82227099
C       -2.37126416       1.92671962       1.39051896
C       -1.44882426       2.39416579       0.23995561
C       -0.59348292       3.59959693       0.60735410
C        0.62892895       3.38879033      -0.22456067
C        0.70382793       1.87147317      -0.31262101
C        1.31780607       1.39499799      -1.64525359
O        0.37714816       1.55794389      -2.67783239
C        1.74624055      -0.08406681      -1.53871874
C        2.40174571      -0.65882373      -2.81108358
C        3.59222055       0.14507468      -3.36650559
C        4.73856140       0.39367564      -2.36986173
C        5.55524900      -0.86978709      -2.02259816
C        5.20749350      -1.52522430      -0.67013285
C        5.31908199      -0.62380757       0.57737017
C        6.60216829       0.22257299       0.69829040
C        7.86328277      -0.57611298       1.08684961
C        8.65939929      -1.07632214      -0.13072308
C       10.06998647      -1.55350066       0.27066259
C       11.02409012      -0.38922936       0.62286557
C       12.29240815      -0.58012819      -0.24744937
C       13.55668964      -0.89765954       0.57290400
C       13.44241044      -2.19001806       1.34500908
C       13.77651746      -3.50566424       0.70785426
O       13.06037495      -2.16980078       2.50495831
O       11.99559724      -1.64137652      -1.13835047
C       10.76872406      -2.20139895      -0.86608754
O       10.32314247      -3.19671983      -1.49598944
O       -0.59323206       1.33753667      -0.14277610
O       -3.10333980       0.79643001       0.97728509
H      -14.26889071      -3.06110866      -1.59470289
H      -14.42129673      -1.67014873      -0.45944001
H      -12.90064738      -1.90881079      -1.42540196
H      -12.35921516      -3.95898059      -0.17523755
H      -13.95961579      -3.93567619       0.63449224
H      -12.28584477      -3.19771717       2.20749363
H      -13.36504064      -1.82698615       1.85060391
H      -10.81489536      -2.08895955       0.15176863
H      -10.60168915      -1.70989028       1.89033347
H      -12.05449346       0.29218243       1.71820093
H      -12.44871301      -0.09446223       0.01477631
H       -9.98191270       0.10306923      -0.57678317
H      -10.80106204       1.62059525      -0.06374494
H       -8.89728763      -0.11446900       1.65697267
H       -9.89936443       1.21117200       2.31297027
H       -7.67057146       2.06902845       1.88584001
H       -8.83841980       2.85869616       0.81223709
H       -6.81213688       2.38649977      -0.46962262
H       -8.15673718       1.44976042      -1.10627244
H       -7.32379303      -0.61764294       0.11790313
H       -6.26572237       0.01185115      -1.14769862
H       -4.99051444      -0.77101547       0.75448295
H       -6.35530585      -0.41094023       2.43742022
H       -4.25406739       1.28108094      -0.64094446
H       -4.61916305       3.39140233       0.11601863
H       -5.50668849       2.80535037       1.57213517
H       -3.63601342       2.82468617       2.89443126
H       -3.02799501       4.02429660       1.68766013
H       -1.74194970       1.64316925       2.26289718
H       -2.07499228       2.66234460      -0.64078834
H       -1.09510249       4.55955986       0.35581983
H       -0.31743047       3.58404605       1.68459779
H        1.53398928       3.82160699       0.25365997
H        0.47853706       3.84642237      -1.22762099
H        1.33587161       1.51732834       0.53392679
H        2.22028827       2.02097820      -1.83538940
H        0.88372884       1.74361088      -3.51070524
H        2.44524766      -0.20533240      -0.68588755
H        0.85147109      -0.70121184      -1.30625547
H        2.73404649      -1.69863632      -2.60105236
H        1.62867081      -0.72965098      -3.60806187
H        3.99383164      -0.38705666      -4.25712569
H        3.22973948       1.12551154      -3.73931689
H        5.43379341       1.10984109      -2.86080015
H        4.36972723       0.92109405      -1.46999968
H        5.43902785      -1.63315211      -2.82248782
H        6.63171826      -0.60956787      -2.02842656
H        4.17337231      -1.92611851      -0.71867913
H        5.86355628      -2.40881686      -0.52859277
H        5.21532088      -1.26155603       1.48244550
H        4.44804484       0.06369152       0.60347096
H        6.77077778       0.83624072      -0.21079145
H        6.41539060       0.95605213       1.51448096
H        7.59841847      -1.43347914       1.74495958
H        8.51245660       0.10046458       1.68600330
H        8.11154007      -1.92687215      -0.58702645
H        8.74850759      -0.27082167      -0.89429501
H       10.01441443      -2.27833383       1.11426301
H       11.25089028      -0.38970329       1.71060027
H       10.56871359       0.59723828       0.38013507
H       12.47886540       0.34224572      -0.84072631
H       13.75765785      -0.05919447       1.27590374
H       14.42752793      -0.95796454      -0.11638542
H       14.59518900      -3.99586136       1.27260208
H       14.10088369      -3.37170816      -0.34490999
H       12.88242617      -4.16226247       0.72282072
