29
Properties=species:S:1:pos:R:3 064188=T pbc="F F F"
C       -3.10997988       1.65162295       0.84396920
O       -1.98419285       1.11899304       0.18367158
C       -2.12058536      -0.28362120       0.07938108
C       -0.87465146      -0.86912769      -0.60552979
C       -1.01371187      -2.38491978      -0.80083460
C        0.39531376      -0.53230039       0.16744800
C        0.57247644      -1.02330524       1.47714633
C        1.72440995      -0.71954929       2.20297407
C        2.71604918       0.07874801       1.63776857
C        2.56006419       0.57869615       0.34458732
C        1.40231280       0.28287362      -0.40407889
O        1.22666591       0.78212007      -1.70589503
C        2.15944216       1.61328011      -2.38902692
H       -3.18519632       1.26571376       1.88491133
H       -2.99632052       2.75349518       0.90275358
H       -4.04650144       1.43975084       0.28140226
H       -2.24480724      -0.74759311       1.08494651
H       -3.01259380      -0.53527056      -0.53994740
H       -0.83414690      -0.42865446      -1.62483171
H       -0.09908353      -2.79200443      -1.28277796
H       -1.87962436      -2.60547790      -1.46104727
H       -1.17122211      -2.90400612       0.16803813
H       -0.18298810      -1.64303826       1.94195995
H        1.84769628      -1.10393665       3.20729744
H        3.60854247       0.31259420       2.20386919
H        3.34732038       1.19689953      -0.06413899
H        2.30804129       2.56084444      -1.82939660
H        3.12738588       1.08251567      -2.50942340
H        1.75988505       1.85465750      -3.39519599
