84
Properties=species:S:1:pos:R:3 065355=T pbc="F F F"
C       -5.96604926      -1.39056769      -1.89488309
O       -4.99204412      -0.42871937      -1.54987343
C       -3.70628873      -0.83587960      -1.99505089
C       -2.96121653      -1.50877401      -0.81660771
C       -1.44186279      -1.29859339      -0.89900505
O       -0.79481570      -2.03966135       0.13699644
C       -0.48845247      -3.39996922       0.06259766
C        0.26624115      -4.03582355       1.17978799
O       -0.86072197      -4.09502475      -0.92210130
C       -1.07224612       0.22199499      -0.81670570
C       -0.74781935       0.69103026       0.63098224
C        0.72154650       0.43958771       1.03161157
O        1.57098383       1.31500832       0.29243223
C        2.88159046       1.46910864       0.84191353
C        3.87661168       1.70803864      -0.30021126
O        3.74825590       0.68285500      -1.28613835
C        4.83169213       0.04283438      -1.89477598
C        4.57586647      -0.93906658      -2.98604299
O        6.00888275       0.20990486      -1.46924205
C        3.34371139       0.29451519       1.74697971
O        3.40870701      -0.90262598       0.96416909
C        4.22765409      -1.99570539       1.26905093
C        4.15105171      -3.22243352       0.42674655
O        5.04808354      -1.94370432       2.22620080
C        2.36109925       0.13146994       2.93749463
O        2.36452849      -1.22787599       3.37987887
C        1.86864342      -1.64659947       4.61862810
C        1.86155242      -3.10010638       4.94853609
O        1.39213410      -0.81689889       5.44006395
C        0.92207711       0.57290720       2.56215184
O        0.72775719       1.93264501       2.96706261
C       -0.49218503       2.45417465       3.41508142
C       -0.61669231       3.92383261       3.63870708
O       -1.47625159       1.69920226       3.64424520
C       -2.17613785       1.13066540      -1.44157509
O       -1.56870661       2.30013551      -1.99973606
C       -1.53365431       3.54955780      -1.37043285
C       -0.68626944       4.63032662      -1.94929242
O       -2.17988378       3.76379044      -0.30975076
C       -2.94362684       0.39706449      -2.55414391
O       -3.84953657       1.30933294      -3.17907370
C       -4.45522018       1.06809681      -4.41718531
C       -5.42301209       2.06440803      -4.95951109
O       -4.19176049       0.02514029      -5.07472273
H       -5.70625928      -2.39452781      -1.49022368
H       -6.09856477      -1.43745459      -2.99792049
H       -6.93665139      -1.08940442      -1.44922958
H       -3.75219887      -1.57034915      -2.83682039
H       -3.19233651      -2.59497910      -0.81582463
H       -3.32593490      -1.09371372       0.14996841
H       -1.08959733      -1.67987786      -1.88460856
H        0.90800747      -4.85595873       0.79430403
H        0.91382165      -3.28142554       1.67302159
H       -0.44631541      -4.44490621       1.92507387
H       -0.15558610       0.35530208      -1.43546592
H       -1.43877992       0.18545224       1.34074104
H       -0.93077137       1.77919698       0.73379309
H        0.97251693      -0.60221200       0.75097412
H        2.88490322       2.39362272       1.46270396
H        3.65720543       2.68532873      -0.77999774
H        4.90866497       1.76118508       0.10920942
H        5.44783182      -0.98867747      -3.67293425
H        4.39463772      -1.94211509      -2.54515562
H        3.68243848      -0.63047054      -3.56644757
H        4.35567296       0.53051274       2.14410916
H        3.21312561      -3.21364326      -0.16806974
H        5.01788392      -3.25324797      -0.26257112
H        4.15470165      -4.12617503       1.07032288
H        2.73022360       0.77336737       3.76949947
H        2.61888691      -3.63155078       4.33405910
H        2.09383391      -3.24878629       6.02444297
H        0.85868625      -3.52128071       4.72796862
H        0.19807839      -0.08606496       3.09040727
H       -1.66277243       4.19568293       3.89723665
H       -0.32602323       4.46039153       2.71153622
H        0.05533088       4.23387282       4.46645332
H       -2.92473994       1.41298616      -0.66571616
H       -1.06045166       5.62814357      -1.63404755
H       -0.71216141       4.57274386      -3.05688355
H        0.36079200       4.50444059      -1.60162887
H       -2.19925798       0.05801641      -3.31193594
H       -6.26134476       2.18975727      -4.24317430
H       -4.91261792       3.04066757      -5.09548820
H       -5.82909505       1.72655196      -5.93693811
