27
Properties=species:S:1:pos:R:3 067442=T pbc="F F F"
C       -4.38198381      -0.14609289      -0.08938189
C       -3.02275057      -0.41828764       0.45839530
O       -2.81236792      -0.29611740       1.69574534
O       -2.00639544      -0.84764044      -0.40252231
C       -0.67597554      -1.12640936       0.03556103
O        0.00481825      -1.85612208      -0.96070669
C        1.35580016      -1.44526017      -0.94112011
C        1.53870537      -0.38570839       0.14143011
C        2.60545631       0.64509891      -0.17786628
C        3.64492847       0.98787461       0.84592272
O        2.64596523       1.18132424      -1.27600451
C        0.12871375       0.14180371       0.34080573
C       -0.24422169       1.31365868      -0.59196942
H       -4.84290744       0.71222663       0.44346808
H       -4.31259860       0.09891133      -1.16994472
H       -5.01995905      -1.04472222       0.04067645
H       -0.72180259      -1.76390318       0.94874069
H        2.00912696      -2.32128458      -0.73946524
H        1.61038515      -1.04747343      -1.94698211
H        1.83196686      -0.91158551       1.08013477
H        4.31125345       1.79577077       0.47493795
H        3.14969623       1.33290249       1.77760151
H        4.25855016       0.09003853       1.06831012
H       -0.02461097       0.45809227       1.39662894
H        0.38006729       2.20229959      -0.36238864
H       -1.29925290       1.61711563      -0.43117875
H       -0.11060712       1.03348990      -1.65882809
