58
Properties=species:S:1:pos:R:3 067136=T pbc="F F F"
C       -1.91162918      -2.44985488      -0.95855110
C       -1.15716553      -1.36248800      -0.77080710
C       -1.31305491      -0.48186906       0.44793951
C        0.02549317      -0.34281915       1.20004435
C        1.07670774       0.53524038       0.47412814
O        1.90417928      -0.28222348      -0.33208520
Si       3.43182618      -0.66793744       0.41375521
C        3.97168162      -2.30917363      -0.30521646
C        3.30422831      -0.92802078       2.27112507
C        4.72313585       0.66960777      -0.01111996
C        4.38373305       1.98390357       0.71305603
C        4.71603463       0.91267630      -1.52999100
C        6.12078750       0.19824960       0.42778650
C        0.43837017       1.61356240      -0.42947028
C       -0.96247609       2.01224466       0.03330979
N       -1.84367577       0.83542048       0.05165428
C       -3.25279542       0.97784633      -0.21639600
O       -3.72767765       2.10840232      -0.51249099
O       -4.08680130      -0.15013826      -0.14359384
C       -5.49374795      -0.19197815      -0.42138529
C       -6.26726132       0.72810542       0.54350570
C       -5.95474289      -1.64146371      -0.20266449
C       -5.76675571       0.20186507      -1.88537640
H       -2.66326119      -2.74691044      -0.23246749
H       -1.78197190      -3.05250168      -1.85172520
H       -0.43258251      -1.09402996      -1.53377987
H       -2.02098806      -0.95306846       1.16791191
H       -0.18927308       0.11837392       2.18991428
H        0.43982267      -1.35320276       1.40866805
H        1.63941058       1.09268476       1.25706868
H        4.91200630      -2.64284789       0.17940885
H        3.18033337      -3.06601287      -0.12323163
H        4.13185144      -2.20512368      -1.39751838
H        4.29062307      -1.24934448       2.66312043
H        2.56214513      -1.72495287       2.48197555
H        3.00141476       0.00563329       2.78480089
H        3.40356532       2.38017674       0.37834645
H        4.35572867       1.83672653       1.81342611
H        5.14897579       2.75720023       0.48943894
H        3.71177287       1.25009100      -1.86926524
H        5.45481224       1.69752369      -1.80257474
H        4.98132455      -0.01409031      -2.08281973
H        6.40941803      -0.73598132      -0.09787883
H        6.88436705       0.97018746       0.19133265
H        6.14774987       0.01151084       1.52193804
H        1.08717240       2.51551927      -0.45264508
H        0.36485062       1.24211297      -1.47587144
H       -1.34799988       2.78207056      -0.66865423
H       -0.91717447       2.45754191       1.04958191
H       -6.04790307       1.79801520       0.34709224
H       -7.36347277       0.58396603       0.42646420
H       -5.98953220       0.50163921       1.59547307
H       -5.40295505      -2.32677175      -0.88219700
H       -7.04393534      -1.74876495      -0.39948266
H       -5.75155245      -1.95670016       0.84354178
H       -5.51804556       1.26655422      -2.07056615
H       -6.83964428       0.05688546      -2.13605803
H       -5.15544669      -0.42326745      -2.56992480
