36
Properties=species:S:1:pos:R:3 067728=T pbc="F F F"
C        4.97430663      -1.08125328       0.12016936
C        3.73658500      -1.85124827       0.56584333
O        2.61723801      -0.97641344       0.69000561
C        1.91057014      -0.46867066      -0.40628757
O        2.20056593      -0.83350485      -1.57960444
C        0.75988354       0.47032775      -0.16095187
C        0.66603399       1.56015497      -1.24670660
O       -0.42352463       2.44539076      -0.98761132
C       -0.40856577       3.41286496       0.02286597
C       -1.62541246       4.23926857       0.26342763
O        0.63448238       3.62621030       0.69864555
C       -0.53941988      -0.30084824      -0.03589187
C       -1.01477389      -1.09922215      -1.09307220
C       -2.22235103      -1.79217910      -0.97081221
C       -2.98405976      -1.68589574       0.20159034
C       -4.26059836      -2.46005972       0.34655396
C       -2.50883223      -0.90166449       1.26236762
C       -1.30106012      -0.20851891       1.14206475
H        5.84706423      -1.76663594       0.08331925
H        4.81856414      -0.64819252      -0.88986076
H        5.18966849      -0.26213765       0.83847153
H        3.51114725      -2.66971272      -0.15200406
H        3.93905924      -2.30873005       1.55707491
H        0.97560718       0.98594503       0.80041135
H        0.50467631       1.09446164      -2.24211416
H        1.61642477       2.13606883      -1.29798936
H       -2.53041408       3.68062707      -0.05502736
H       -1.71575292       4.48073470       1.34356686
H       -1.55396271       5.18117946      -0.31891551
H       -0.45087219      -1.18796323      -2.01253783
H       -2.56444295      -2.40963232      -1.79227241
H       -4.03910998      -3.46011439       0.77418100
H       -4.75491907      -2.58900598      -0.63989844
H       -4.96786712      -1.92744853       1.01749840
H       -3.07460790      -0.82435729       2.18269411
H       -0.96133017       0.40017547       1.97080644
