96
Properties=species:S:1:pos:R:3 068234=T pbc="F F F"
C        4.26743879       3.04810630      -0.23518328
C        3.31315166       4.07153706      -0.73768184
O        3.75082958       5.17163018      -1.16654372
O        1.94793584       3.78228372      -0.77025924
C        0.96491273       4.70419429      -1.22078769
C       -0.43659661       4.06479356      -1.16784658
O       -0.39363123       2.77015132      -1.75024720
C       -0.53948867       1.65264064      -0.87895361
O        0.21424011       0.61569170      -1.47851738
C       -0.40896428      -0.65472854      -1.42942678
C       -1.34180574      -0.83127787      -2.64700526
C       -1.75831481      -2.26988484      -2.86144526
C       -2.90779450      -2.59896506      -3.61613228
O       -3.74590134      -1.61215939      -4.14644908
C       -3.35588369      -0.73604588      -5.16603626
C       -4.28572343       0.34455257      -5.60071303
O       -2.25736985      -0.89165706      -5.76456051
C       -3.24794349      -3.94245682      -3.82324558
C       -2.43826990      -4.97149803      -3.31404544
O       -2.69684795      -6.32661886      -3.55906053
C       -3.95798523      -6.87591236      -3.81737726
C       -4.05024782      -8.22946477      -4.44070260
O       -5.00822499      -6.29103341      -3.44833649
C       -1.29706246      -4.64267783      -2.58000634
C       -0.95886983      -3.30962919      -2.34619887
O        0.17232241      -3.02449840      -1.57924143
C        0.71272908      -1.71019229      -1.47232259
C        1.58420578      -1.61413271      -0.24209694
C        2.76726322      -0.86488617      -0.27726844
C        3.55165576      -0.73044885       0.86683976
C        3.16372612      -1.32971824       2.07586114
O        3.89220833      -1.11957291       3.25842879
C        5.28622139      -0.98212111       3.33002813
C        5.91107863      -0.51604222       4.60457826
O        6.02133783      -1.33854925       2.36944699
C        1.97370393      -2.08627809       2.11599792
O        1.51561491      -2.68798308       3.29538224
C        2.32693126      -3.35004937       4.22324923
C        1.78621183      -3.65520074       5.58014991
O        3.46566368      -3.77857197       3.89354359
C        1.18396559      -2.20359381       0.96744080
C       -0.01912571       1.85135730       0.57412517
O       -0.52878437       0.79319336       1.38682663
C       -0.08140131       0.52940524       2.68670076
C       -0.84485762      -0.42366181       3.54173667
O        0.93536743       1.11562862       3.15462541
C       -0.40680881       3.20643889       1.21464561
O        0.77590681       3.81926154       1.73662995
C        0.77566380       4.82300937       2.70977709
C        2.08150411       5.38328755       3.16500601
O       -0.30645048       5.24299380       3.20700934
C       -1.10426111       4.13875509       0.21784082
O       -2.48152312       3.77838421       0.08052588
C       -3.46427487       4.11153428       1.02096301
C       -4.87296644       3.67059149       0.80301211
O       -3.16560914       4.75002203       2.06550299
H        3.81553864       2.50084398       0.61282316
H        5.20706315       3.51804194       0.12172599
H        4.49973281       2.33004805      -1.04666420
H        1.00231486       5.62451875      -0.59776574
H        1.19439724       4.98111785      -2.27110529
H       -1.07242351       4.68355444      -1.83814567
H       -1.62878303       1.41365454      -0.83814863
H       -0.99599432      -0.80675862      -0.49724977
H       -2.24425464      -0.20060406      -2.50549566
H       -0.81005131      -0.48115523      -3.55751848
H       -3.71290866       1.24714419      -5.90414363
H       -4.96426459       0.62305853      -4.76695730
H       -4.89135427      -0.00579341      -6.46117335
H       -4.10810044      -4.17004898      -4.43857119
H       -4.17332930      -8.99954042      -3.64882834
H       -4.91736968      -8.27475093      -5.13126729
H       -3.12659257      -8.44616926      -5.01519679
H       -0.66868440      -5.43294670      -2.18937485
H        1.33518999      -1.53267595      -2.37802428
H        3.07035494      -0.36075259      -1.18677082
H        4.43515482      -0.11028770       0.81732223
H        5.21666461       0.17466689       5.13811476
H        6.11816305      -1.39376925       5.25626967
H        6.86147833       0.02381391       4.38479134
H        1.25786416      -4.63466701       5.55055268
H        1.07829631      -2.85328977       5.88945484
H        2.61456089      -3.70568796       6.32300927
H        0.25359586      -2.75502444       1.02086223
H        1.08965333       1.75853162       0.54189293
H       -0.21199727      -0.78637712       4.37552182
H       -1.73423379       0.08776622       3.95594898
H       -1.17224954      -1.29830471       2.94012584
H       -1.10576861       3.02128136       2.06319852
H        1.91954110       6.24569940       3.84688806
H        2.66617358       5.71623722       2.27970921
H        2.65389033       4.59637810       3.70641845
H       -1.05144998       5.18835603       0.58185415
H       -5.00089458       3.28801600      -0.23372593
H       -5.11671264       2.85971745       1.52168872
H       -5.56101269       4.52622447       0.96977165
