72
Properties=species:S:1:pos:R:3 068069=T pbc="F F F"
C       -2.18555948      -0.28159759      -2.97711987
C       -2.70782958       0.06817085      -1.56968502
C       -1.89923546      -0.64598286      -0.44482351
C       -0.42563876      -0.21816099      -0.38174740
O        0.19067298      -0.89132418       0.69169481
Si       1.91285732      -0.68238028       0.63296230
C        2.31470810       1.11765451       0.30165791
C        2.26502679       2.07482419       1.32796743
C        2.50766811       3.42368034       1.05070686
C        2.77489114       3.83327205      -0.25714324
C        2.78873766       2.89536323      -1.29135126
C        2.54873557       1.54595659      -1.01667059
C        2.59019451      -1.72716351      -0.75123567
C        3.90232087      -1.53167859      -1.20684936
C        4.42488718      -2.34765617      -2.21420166
C        3.64609759      -3.37124890      -2.76108803
C        2.34564585      -3.58399848      -2.29629379
C        1.82027168      -2.77026333      -1.28828126
C        2.62838536      -1.37176780       2.26840063
C        1.68373341      -1.04405377       3.44007310
C        4.02103104      -0.77491676       2.53413037
C        2.74928827      -2.90478838       2.16014773
O       -1.94566596      -2.04629897      -0.65904623
S       -2.86644509      -2.81390383       0.54306477
C       -1.98817501      -2.80912567       2.09279557
O       -3.10064632      -4.23921103       0.12981014
O       -4.19757848      -2.13249259       0.70226696
C       -2.78062893       1.60714662      -1.37642220
C       -3.78516809       2.27404971      -2.28202261
O       -4.30379726       3.34046852      -1.55517231
C       -4.03846164       3.04321237      -0.20071075
C       -3.36329124       4.25404988       0.44967498
C       -5.35973002       2.73327095       0.50955625
O       -3.18546476       1.92535347      -0.08047146
H       -1.20649719       0.20401570      -3.17284440
H       -2.07597350      -1.37971509      -3.09817901
H       -2.90389693       0.06556554      -3.74914925
H       -3.74508612      -0.33027562      -1.49991996
H       -2.34513037      -0.34338023       0.53111952
H        0.06067665      -0.46759752      -1.35147497
H       -0.36965232       0.87717944      -0.20563808
H        2.03322386       1.79300854       2.34115710
H        2.47948412       4.15362741       1.84976153
H        2.95875714       4.87838752      -0.47065021
H        2.97675959       3.21455461      -2.30857529
H        2.53297587       0.84419457      -1.83951823
H        4.51945839      -0.74753983      -0.78746146
H        5.43522262      -2.18967461      -2.56793768
H        4.05324478      -4.00414008      -3.53891374
H        1.74660085      -4.38313434      -2.71315578
H        0.81730484      -2.95884850      -0.92753676
H        2.08213914      -1.46262717       4.38998193
H        0.67796696      -1.48493736       3.27028195
H        1.56522002       0.04604551       3.58130096
H        4.70790263      -0.98728348       1.68815820
H        3.96584779       0.32362699       2.67477716
H        4.46220935      -1.21326357       3.45580235
H        3.09175550      -3.34030616       3.12381020
H        1.76699706      -3.35939402       1.90559070
H        3.48591890      -3.19445548       1.38105987
H       -2.54740965      -3.40918174       2.83931137
H       -0.98113139      -3.25159752       1.94834479
H       -1.88212463      -1.76971514       2.46449846
H       -1.78145665       2.06331740      -1.55692226
H       -4.61923345       1.59190218      -2.55706551
H       -3.29890591       2.64779516      -3.20835602
H       -2.40492636       4.47433068      -0.06811129
H       -3.14583668       4.04856081       1.52000470
H       -4.01708281       5.15000734       0.37794741
H       -5.17935754       2.49483362       1.57983051
H       -6.05048347       3.60100653       0.44255282
H       -5.84731844       1.85664833       0.03154480
