110
Properties=species:S:1:pos:R:3 068488=T pbc="F F F"
C       -6.44110148       5.40768242       5.21938012
C       -7.36524964       4.89257648       4.11677978
C       -6.94128518       3.51959691       3.57250798
C       -7.14473614       2.39049643       4.59330694
C       -6.84564726       1.02357219       3.96662721
C       -7.00954910      -0.09976878       5.00041535
C       -6.79860974      -1.48825411       4.38642090
C       -5.36694155      -1.69902666       3.97900453
C       -5.01663186      -1.83959210       2.69739198
C       -3.60302199      -2.04200011       2.31728788
C       -3.18864832      -2.24212226       1.04981922
C       -4.15700364      -2.22687080      -0.10827574
C       -1.71686436      -2.47335328       0.77084520
C       -1.09633967      -1.23194055       0.10551699
C        0.38226706      -1.39701515      -0.13181430
O        1.12348072      -1.80116511       0.80503348
N        0.95699939      -1.01639872      -1.39217175
C        2.32296357      -1.36983399      -1.78595005
C        3.22593516      -0.12057841      -1.92143997
O        2.55428030       0.81762393      -2.73872083
Si       2.72442436       2.51878357      -2.33246232
C        1.94909985       3.31106539      -3.89737465
C        1.42812810       4.73871445      -3.70030755
C        0.81474118       2.43150473      -4.43871884
C        4.56354954       3.06225230      -2.24661415
C        5.23246763       2.75837680      -0.89855652
C        4.75737204       4.54205651      -2.59076034
C        1.67108812       3.01267823      -0.79876315
C        1.93689289       4.44340370      -0.30680709
C        1.83941344       2.04757275       0.37578957
C        4.61214509      -0.49275016      -2.54011138
C        4.55571801      -0.74966110      -4.05815920
C        5.31805722      -1.60149376      -1.78069504
O        5.92892290      -1.30885080      -0.71641470
N        5.29062389      -2.96619483      -2.23271565
C        6.26346007      -3.96349061      -1.77754554
C        5.85231852      -4.58265579      -0.43657447
C        4.48838114      -5.20483982      -0.53707945
C        3.41351859      -4.56696313      -0.06939577
C        2.03705904      -4.95238936      -0.41581615
C        1.62553202      -6.21999582      -0.55387713
C        0.25566646      -6.57404757      -0.99473768
C       -0.86614581      -5.89395798      -0.70469574
C       -0.94737067      -4.80242548       0.27539136
O       -0.43090078      -4.94390743       1.41826581
O       -1.57790396      -3.60833180      -0.08968715
H       -6.72036241       6.45075962       5.48012004
H       -6.53926921       4.78827922       6.13463759
H       -5.38590786       5.40036011       4.87532412
H       -7.34910386       5.62168755       3.27902575
H       -8.40800850       4.84813202       4.49748825
H       -5.87575117       3.55559976       3.25536313
H       -7.55706210       3.30470428       2.67102814
H       -8.19677712       2.40563930       4.95349344
H       -6.46715375       2.54348660       5.46099575
H       -5.80446246       1.01953680       3.57584413
H       -7.54249755       0.84859707       3.11781231
H       -8.03740819      -0.05778616       5.42216500
H       -6.29390959       0.04812120       5.83825119
H       -7.49599983      -1.63147334       3.53120138
H       -7.05350930      -2.25607596       5.14648902
H       -4.60921765      -1.71616358       4.75451969
H       -5.78492285      -1.81028056       1.93537512
H       -2.86906844      -2.04620453       3.11592072
H       -4.66871861      -1.24274848      -0.15941309
H       -3.63772393      -2.39146134      -1.07558899
H       -4.90828896      -3.03349899       0.01600712
H       -1.17565240      -2.64668788       1.72821580
H       -1.60835186      -1.03269032      -0.86058867
H       -1.24710012      -0.34501687       0.75814993
H        0.36418911      -0.50315558      -2.08265169
H        2.76649317      -2.05681235      -1.04379289
H        2.26632445      -1.92013299      -2.74639134
H        3.38828006       0.26083996      -0.89529507
H        2.74398154       3.33781781      -4.67353059
H        0.58336502       4.75558064      -2.98132509
H        1.05615123       5.14030505      -4.66760533
H        2.22964888       5.41778778      -3.35805022
H        1.20296487       1.44186649      -4.75882946
H        0.02871039       2.28142464      -3.66625508
H        0.35040091       2.90308784      -5.33107666
H        5.09339997       2.49328467      -3.03756736
H        6.33273140       2.88849003      -0.99689301
H        5.05462680       1.71731946      -0.56912242
H        4.87997452       3.44808759      -0.10645301
H        4.44923042       4.73936478      -3.63763673
H        5.83280930       4.81303065      -2.51287619
H        4.18412826       5.19317414      -1.89780291
H        0.60955458       2.95887367      -1.12164824
H        1.82521956       5.19085175      -1.11017322
H        1.20445514       4.70893262       0.48543711
H        2.95164372       4.54098778       0.12420679
H        2.89864466       1.99433891       0.70266336
H        1.47845800       1.04381670       0.09970727
H        1.22438040       2.37993666       1.23878170
H        5.27260249       0.38459360      -2.43360960
H        5.55990970      -1.03931726      -4.43388014
H        3.83519358      -1.54578261      -4.32192568
H        4.25483610       0.17558698      -4.59242115
H        4.63243168      -3.24662225      -2.99269438
H        6.34105519      -4.77089997      -2.53941858
H        7.26848669      -3.49816771      -1.68473828
H        5.88894185      -3.81058848       0.36388588
H        6.58379149      -5.37412295      -0.16672239
H        4.37817185      -6.09202186      -1.14844835
H        3.54430068      -3.62888962       0.45470033
H        1.34979018      -4.13735866      -0.57699778
H        2.33595834      -7.03074103      -0.44814095
H        0.16479181      -7.44140215      -1.63702183
H       -1.78435542      -6.17626161      -1.20376568
