57
Properties=species:S:1:pos:R:3 068126=T pbc="F F F"
C        2.88536903       1.98281808      -2.62449857
C        1.80924664       2.29334607      -1.58350999
C        1.23267847       1.03011609      -0.90948892
C        1.96540809       0.62721299       0.39930156
C        3.40029648       0.21322539       0.10964675
C        3.68534267      -0.90698188      -0.69640121
C        5.00910418      -1.27495028      -0.95310490
C        6.06058940      -0.53440000      -0.40873693
C        5.79063255       0.57558552       0.39476822
C        4.46881159       0.94868404       0.65507908
C        1.20010250      -0.49390402       1.17148647
C        1.93901479      -0.91122391       2.45438597
C       -0.20245476      -0.05001147       1.55350666
O       -0.32798373       0.99443147       2.25183220
N       -1.38287648      -0.80166836       1.17802822
C       -1.33841548      -1.69265875       0.00833025
C       -2.63774823      -0.58839456       1.93735699
C       -3.42053201      -1.89656597       2.15776859
C       -3.48973191       0.56419594       1.33503672
O       -4.63869658       0.78579744       2.11462851
C       -3.89064311       0.32632651      -0.10668371
C       -5.03371486      -0.42946656      -0.43005593
C       -5.37233416      -0.66324079      -1.76624883
C       -4.57824808      -0.14477952      -2.79178193
C       -3.44591409       0.61234157      -2.48331223
C       -3.10417764       0.85022979      -1.14912120
H        3.80635189       1.59624740      -2.14637417
H        2.51233505       1.24191086      -3.36302992
H        3.15048371       2.91454176      -3.16717586
H        0.98155445       2.81977821      -2.10770655
H        2.21479714       2.99709479      -0.82478171
H        0.17644145       1.26273095      -0.66283409
H        1.20242864       0.17990017      -1.62458414
H        1.97535398       1.52566797       1.05760977
H        2.88597209      -1.49337824      -1.12999497
H        5.21976163      -2.13506467      -1.57538288
H        7.08483155      -0.82100689      -0.60917076
H        6.60659760       1.14808727       0.81651099
H        4.28067218       1.81270718       1.27988941
H        1.15700893      -1.39285325       0.52619901
H        1.33738138      -1.65696766       3.01773146
H        2.12165880      -0.03088313       3.10755994
H        2.91319726      -1.38535042       2.21185711
H       -0.79839183      -2.62687375       0.26771240
H       -2.34998309      -1.96420324      -0.34828091
H       -0.82936748      -1.18666741      -0.83819165
H       -2.36317044      -0.26507044       2.96726316
H       -2.74102519      -2.67404407       2.56702211
H       -3.87612243      -2.28269498       1.22616801
H       -4.23558849      -1.73230810       2.89417771
H       -2.87000515       1.49139151       1.36612172
H       -4.33819094       1.20606212       2.96274572
H       -5.66213867      -0.84026343       0.34992962
H       -6.25080465      -1.24801078      -2.00661123
H       -4.84131047      -0.32839322      -3.82545236
H       -2.83137336       1.01453687      -3.27832231
H       -2.22248082       1.43731178      -0.92881649
