37
Properties=species:S:1:pos:R:3 069138=T pbc="F F F"
C       -2.87214746      -0.03104775      -3.10234568
O       -1.98667545      -0.39270853      -2.05005688
C       -2.23017210      -0.06417861      -0.71228557
O       -3.28661075       0.54867892      -0.39208714
C       -1.25046403      -0.49975806       0.35283527
C       -1.40562950      -2.01771020       0.65891479
C       -2.06428507      -2.13440262       2.04203930
C       -1.97615969      -0.76214172       2.57721080
O       -2.26169338      -0.45623439       3.76539080
N       -1.54228940       0.18258274       1.61706325
C       -1.03056166       1.52379582       1.93533316
C        0.50151962       1.54877747       1.80798943
C        0.92370916       0.81082461       0.57149412
C        0.16046345      -0.15750980      -0.06544560
N        0.84950419      -0.72821867      -1.08179456
C        2.05697183      -0.13141006      -1.07296260
C        3.13498389      -0.39653515      -1.91617025
C        4.32359960       0.32891791      -1.71271644
C        4.41002448       1.28870143      -0.67917060
C        3.30809022       1.53482728       0.16018240
C        2.14208140       0.80719765      -0.07117964
H       -3.86868947      -0.49210476      -2.93579418
H       -2.97255284       1.07391442      -3.15140270
H       -2.46230859      -0.39816595      -4.06549651
H       -2.01685998      -2.54484661      -0.10704314
H       -0.41302507      -2.52019497       0.69747935
H       -3.13072180      -2.43122734       1.94731599
H       -1.51662781      -2.84889523       2.69355428
H       -1.46599463       2.25265035       1.21806891
H       -1.33271486       1.83238976       2.95894271
H        0.95333581       1.05028683       2.69194140
H        0.85853211       2.59978705       1.76631037
H        0.52343993      -1.48616972      -1.72210317
H        3.06295046      -1.13939957      -2.69998540
H        5.17909936       0.14717662      -2.35009100
H        5.33107706       1.83709502      -0.53060746
H        3.36680093       2.26525583       0.95667218
