44
Properties=species:S:1:pos:R:3 070579=T pbc="F F F"
C        6.23068251      -0.74025499      -0.21784171
C        5.19381195       0.34050008      -0.49910620
C        3.87290653      -0.03292055       0.09296417
O        3.57787194       0.35310088       1.25697720
O        3.00110452      -0.84918984      -0.63762111
C        1.70556612      -1.24573260      -0.18164827
C        1.44525839      -2.67578462      -0.65349993
C        0.62478388      -0.29975617      -0.73731117
C        0.74536122       1.12496315      -0.17272146
C       -0.42851950       2.02794116      -0.60736120
C       -1.48472533       2.24903939       0.49356313
C       -2.22754147       0.98036756       0.95793831
C       -3.13373176       0.33072923      -0.11986160
C       -4.35385026       1.20644832      -0.45212524
C       -3.55467889      -1.10438129       0.27997677
C       -4.39395364      -1.18781632       1.55821715
H        5.90829823      -1.70804333      -0.65863364
H        7.20217449      -0.44965419      -0.67037801
H        6.37109850      -0.86414729       0.87743263
H        5.53993033       1.30660606      -0.07198657
H        5.08145979       0.46711714      -1.59721775
H        1.66383754      -1.25252883       0.93067386
H        2.23083338      -3.35119657      -0.25272924
H        1.46294368      -2.72821826      -1.76342484
H        0.45793232      -3.03073847      -0.28767678
H        0.70252734      -0.26064122      -1.84635252
H       -0.37223532      -0.71354332      -0.48396715
H        0.82567247       1.09457102       0.93588075
H        1.68694169       1.57232570      -0.55812927
H       -0.89968943       1.66156970      -1.54336279
H       -0.01306961       3.02883120      -0.85741510
H       -2.21813606       3.00399402       0.14137375
H       -0.98082332       2.69877386       1.37700674
H       -2.85137790       1.26069108       1.83415628
H       -1.48623050       0.24292448       1.33117500
H       -2.55215523       0.21789007      -1.05783707
H       -5.05341755       0.65875968      -1.11893661
H       -4.03569959       2.12436194      -0.98844584
H       -4.89571655       1.50508787       0.46996472
H       -4.13314724      -1.56049043      -0.55296029
H       -2.64336826      -1.72722262       0.41449173
H       -5.33842891      -0.61588288       1.45095249
H       -3.82476101      -0.80935571       2.43195918
H       -4.65573947      -2.24909406       1.75384747
