30
Properties=species:S:1:pos:R:3 071021=T pbc="F F F"
C       -4.59617650      -0.47833268       1.11647182
C       -3.26879091      -0.53183083       0.97821655
C       -2.55099523       0.34455683      -0.02562995
O       -2.69354969       1.69639139       0.33414524
C       -1.05352376      -0.02124395      -0.16249392
C       -0.87618187      -1.41039757      -0.78657887
O       -0.42771840       0.92646471      -1.01695731
C        0.59773185       1.64094639      -0.35317711
C        1.85365034       0.81419380      -0.26360746
C        2.55656149       0.47691785      -1.43161736
C        3.70711433      -0.31428064      -1.35723065
C        4.16052365      -0.77621932      -0.11852053
C        3.46326150      -0.44866094       1.04767639
C        2.31224605       0.34240962       0.97760195
H       -5.09306319      -1.11406688       1.84207560
H       -5.19361988       0.19595141       0.51022836
H       -2.70690302      -1.21959795       1.60390825
H       -3.03437442       0.20714400      -1.01833294
H       -2.26954583       1.81456571       1.22496496
H       -0.60913096      -0.06353332       0.86223663
H       -1.33153349      -2.19540045      -0.14764019
H        0.20591118      -1.63789132      -0.89040318
H       -1.34230953      -1.44695039      -1.79437522
H        0.26866261       2.01359957       0.64447392
H        0.82332486       2.54990552      -0.94982303
H        2.21034595       0.82340980      -2.39757048
H        4.24573266      -0.57139446      -2.26012512
H        5.05055624      -1.38952216      -0.06255513
H        3.81337860      -0.80982935       2.00602450
H        1.77841534       0.58269563       1.88861424
