45
Properties=species:S:1:pos:R:3 072388=T pbc="F F F"
C        6.62623307      -2.12053346       0.40466537
C        5.45681713      -2.17760671      -0.52404974
C        4.68990815      -1.15214197      -0.86941053
C        3.54546899      -1.61543267      -1.73042623
O        2.31018417      -1.31934227      -1.09309249
C        1.08685227      -1.63136838      -1.68566545
C       -0.05470059      -1.34053246      -1.06066621
C       -1.38240137      -1.62772822      -1.54491662
O       -1.66125551      -2.16010785      -2.65141723
O       -2.33083991      -1.24179792      -0.62322011
C       -1.72248648      -0.67475089       0.53580765
C       -2.06224165       0.77437785       0.66397911
C       -0.99130159       1.54148246       0.51330722
C        0.26277227       0.77119524       0.29966159
C       -0.19040451      -0.69879437       0.28832106
C       -1.05970914       3.01011171       0.58800135
O       -0.01779546       3.70197591       0.43658741
C       -2.38416489       3.68756354       0.79278140
C       -3.38043732       2.75253152       1.50108385
C       -3.46634285       1.34388389       0.84089851
C       -4.30516899       0.42732425       1.75440645
C       -4.15389520       1.44242382      -0.53695510
O        3.73462552      -3.02669333      -1.81239444
C        4.86282684      -3.36454012      -1.09168314
O        5.28834891      -4.54130933      -0.95541468
H        7.15575170      -1.15011096       0.29779165
H        6.27345543      -2.23154829       1.45106609
H        7.33682639      -2.94059042       0.17058342
H        4.85495373      -0.12948054      -0.55488256
H        3.59881853      -1.14993939      -2.73829603
H        1.06414357      -2.11195490      -2.65717146
H       -1.99881208      -1.24543374       1.44813260
H        0.96231034       0.95300421       1.14361685
H        0.74183796       1.08075018      -0.65499658
H        0.33393957      -1.29698033       1.06615094
H       -2.78866905       4.00182614      -0.19216585
H       -2.24324565       4.60111983       1.40991039
H       -3.05279846       2.64412534       2.55970897
H       -4.38247106       3.23501793       1.51782759
H       -5.30931989       0.86919412       1.93315511
H       -4.44976643      -0.57303790       1.29263699
H       -3.80341752       0.28982526       2.73672079
H       -3.53049676       2.01601743      -1.25498334
H       -4.32300314       0.43308721      -0.96818558
H       -5.14092905       1.94491858      -0.44680898
