52
Properties=species:S:1:pos:R:3 072221=T pbc="F F F"
C        0.26703739       2.19972259       0.18358472
O        1.27818592       1.28305992       0.58984184
C        1.42014940      -0.02888147       0.10851493
C        0.29217361      -0.88231684      -0.02726835
N       -1.02662975      -0.45919649       0.35999246
C       -1.42428595      -0.62171732       1.76104708
C       -2.70630011      -1.44616373       1.85677670
C       -3.87344947      -0.92938848       0.96553480
N       -4.94893937      -0.39324308       1.80912264
C       -3.44688819       0.09892237      -0.14932355
C       -3.48917819       1.56427365       0.35973931
C       -4.43263153       0.00588561      -1.34063099
C       -2.02947090      -0.24370647      -0.69476587
C        0.46925366      -2.21909080      -0.40104896
F       -0.59741840      -3.05391521      -0.48663774
C        1.73924413      -2.73483868      -0.60518996
C        2.87228742      -1.92289683      -0.46508608
C        4.15803471      -2.47613659      -0.59196093
O        4.31895133      -3.70097210      -0.84620340
C        5.27373853      -1.67272547      -0.41367091
C        5.11224993      -0.31456562      -0.18131020
N        3.86923817       0.25942625      -0.14782695
C        3.82453962       1.73259013      -0.07254446
C        4.70439587       2.45579023      -1.09395385
C        3.20754711       2.40430093      -1.29619198
C        2.73052020      -0.53590107      -0.16999782
H       -0.67057007       2.01781753       0.73542198
H        0.10355438       2.13500814      -0.91380149
H        0.59851476       3.22808708       0.42820858
H       -1.54703528       0.36243198       2.25068401
H       -0.62703284      -1.14924734       2.33115453
H       -2.45861749      -2.48787138       1.55222757
H       -3.00931606      -1.49964705       2.92516523
H       -4.27430473      -1.83526286       0.45320424
H       -5.25942882      -1.14217655       2.46986804
H       -5.78132533      -0.19825672       1.20968388
H       -4.53636026       1.89388060       0.53064386
H       -3.04490519       2.25532245      -0.38934526
H       -2.95549559       1.69908068       1.31676556
H       -4.13183775       0.70550395      -2.15140397
H       -4.45147505      -1.02136253      -1.76542271
H       -5.46655356       0.26855529      -1.03264280
H       -1.67929102       0.56131386      -1.37455419
H       -2.09303199      -1.16706929      -1.30970574
H        1.83340968      -3.78650239      -0.84744545
H        6.26991284      -2.09308251      -0.47600437
H        6.00501311       0.29068930      -0.07019268
H        3.71388430       2.22129493       0.91866665
H        5.25186168       1.83542896      -1.83382970
H        5.06928559       3.45380069      -0.77301012
H        2.88242617       1.71584701      -2.10602936
H        2.69636337       3.36810074      -1.08884878
