26
Properties=species:S:1:pos:R:3 073942=T pbc="F F F"
C       -3.04971232       1.02229549       0.55128210
C       -2.40018691      -0.00663166      -0.37060485
C       -0.94117094      -0.28791632       0.02276981
C        0.09642245       0.85101101      -0.05317416
C        1.53674357       0.40408578       0.25757618
C        2.53042966       1.52207182      -0.07824141
C        1.87244381      -0.87245220      -0.52373106
C        1.00862144      -2.03932783      -0.04072354
C       -0.49111511      -1.71124301      -0.02387284
O       -0.83574830      -1.06548838       1.18977715
H       -2.55341884       2.00957573       0.44562870
H       -4.11967310       1.14011683       0.27878149
H       -2.98783354       0.68829344       1.60878859
H       -2.42492826       0.37190472      -1.41466991
H       -3.00609717      -0.93869228      -0.33653435
H        0.05340330       1.27994646      -1.07828774
H       -0.19005940       1.65173340       0.66149479
H        1.62105703       0.19387072       1.34788113
H        2.50847600       1.75541459      -1.16461797
H        2.27772663       2.44145212       0.49191834
H        3.56069304       1.21436402       0.20098623
H        1.70662637      -0.71027674      -1.61222658
H        2.94165590      -1.13975133      -0.37516843
H        1.33372324      -2.35095974       0.97633248
H        1.17265267      -2.90399001      -0.71841923
H       -1.22073124      -2.51940664      -0.24294494
