57
Properties=species:S:1:pos:R:3 073074=T pbc="F F F"
C        2.81163639      -2.86254196      -0.42647362
C        2.02174494      -1.61631834      -0.84786320
C        2.35544905      -1.20390923      -2.28614370
N        2.18419205      -0.46608427       0.08230891
C        1.21138025      -0.43712303       1.20270030
C        0.14657347       0.65186991       0.97220456
C       -0.84213232       0.34825748      -0.19529335
C       -1.59926741      -0.96712022       0.01254914
C       -1.74343589      -1.86230477      -1.06633526
C       -2.41086340      -3.07934240      -0.89984163
C       -2.95225623      -3.41811347       0.34102842
C       -2.83322610      -2.53581251       1.41645295
C       -2.16625503      -1.31719574       1.25670915
C       -1.79204140       1.55987879      -0.55866642
C       -2.64024250       1.19004806      -1.80521695
C       -2.75049388       1.91752830       0.62667825
C       -3.74930505       3.05383173       0.32997773
O       -4.43678104       3.40908267       1.49792255
C       -0.92278714       2.76069626      -0.91939040
O       -0.36411556       2.82473058      -2.04912572
O       -0.66181852       3.75613547       0.02069430
C        3.58101117      -0.04011876       0.38517729
C        3.65395130       1.48838291       0.43985679
C        4.17009131      -0.65656672       1.67471732
H        3.90789719      -2.68045961      -0.46225468
H        2.51410851      -3.17554297       0.59633408
H        2.57810044      -3.70209093      -1.11902164
H        0.95663405      -1.92361808      -0.86922825
H        2.00341546      -1.98060729      -2.99692507
H        3.44658203      -1.07690449      -2.42801653
H        1.84715136      -0.24997375      -2.53916750
H        1.70176554      -0.19511806       2.16601405
H        0.73350385      -1.42867027       1.35796182
H       -0.40452463       0.80606990       1.92289072
H        0.68594586       1.60113440       0.77365716
H       -0.18964184       0.20852245      -1.08486951
H       -1.32539794      -1.62525717      -2.03713669
H       -2.50460162      -3.76211587      -1.73469485
H       -3.46436631      -4.36416179       0.46844725
H       -3.25706431      -2.79695808       2.37730045
H       -2.09561743      -0.65685379       2.10947321
H       -1.99968221       0.77093908      -2.61200758
H       -3.15198722       2.08416451      -2.22508632
H       -3.41801601       0.43656385      -1.55114765
H       -3.35316471       1.02956921       0.90673712
H       -2.15387751       2.20489861       1.51749515
H       -4.49888197       2.70758993      -0.41186242
H       -3.24022327       3.94631090      -0.09572166
H       -3.80460601       3.94119856       2.04901395
H       -0.05301798       4.53573493      -0.20084353
H        4.24994453      -0.34188463      -0.44778060
H        3.07839981       1.87813426       1.30525466
H        3.23436737       1.92129164      -0.49392407
H        4.71067516       1.81890927       0.54039761
H        3.91491402      -0.04788438       2.57140070
H        3.80009526      -1.68408294       1.84475078
H        5.28016210      -0.69673811       1.59793243
