30
Properties=species:S:1:pos:R:3 074306=T pbc="F F F"
C        1.44653632       2.25993697       0.11249477
C        0.85187390       0.86920897      -0.23123497
C        0.37719229       0.91021425      -1.70671955
C        1.79201261      -0.27796051       0.19486589
C        1.38289772      -1.61615983      -0.48480322
C       -0.15842822      -1.91927392      -0.35845174
C       -0.98545568      -0.84943441       0.45951806
C       -2.29824410      -0.43811148      -0.24449054
C       -3.21904901       0.32470713       0.66557505
O       -4.28643370       0.73820993       0.24267913
C       -0.09526282       0.36266148       0.89035997
C        1.12756400      -0.27352291       1.57572641
H        0.67125665       3.04508732      -0.01708095
H        2.29763170       2.48844304      -0.56413802
H        1.82021043       2.32998208       1.15421759
H       -0.03930300      -0.02906232      -2.09964594
H        1.23601540       1.16782021      -2.36234126
H       -0.39430798       1.69962947      -1.82941149
H        2.88100077      -0.05394243       0.19005074
H        1.95886351      -2.44184264      -0.01281417
H        1.68227890      -1.59412175      -1.55455646
H       -0.58730991      -2.05960185      -1.37387463
H       -0.27730686      -2.90755911       0.13778786
H       -1.30220322      -1.35614506       1.40116082
H       -2.10486917       0.17521765      -1.14329988
H       -2.83230235      -1.35522240      -0.57519534
H       -2.95329227       0.51292045       1.70106472
H       -0.59923630       1.14436595       1.49914906
H        1.62784600       0.41756756       2.28847932
H        0.97982439      -1.27401182       2.04492878
