32
Properties=species:S:1:pos:R:3 075737=T pbc="F F F"
C        3.59395011       2.84135682       0.54095892
O        2.20987533       2.51290390       0.47910025
C        1.70944564       1.20886135       0.34781920
C        2.54967732       0.08351134       0.26275644
C        2.01171759      -1.20212486       0.13823214
O        2.89731254      -2.28812473       0.06498853
C        2.49537192      -3.64840249      -0.05993595
C        0.61445283      -1.36432403       0.09271820
C       -0.23584358      -0.24871962       0.16237568
C       -1.73553371      -0.43379155       0.14387719
C       -2.29374728      -0.32649118       1.56560100
O       -2.32798857       0.55610950      -0.69953380
C       -3.63844352       0.47841114      -1.18424701
C       -4.17138907       1.58005602      -2.03529891
O       -4.35559448      -0.53227111      -0.95149117
C        0.32301934       1.03271623       0.30205283
H        4.06254603       2.35555359       1.42281578
H        4.10515080       2.51850656      -0.39040852
H        3.70141901       3.94063722       0.64236815
H        3.62522307       0.19332047       0.29620955
H        1.92228725      -3.79258003      -1.00002865
H        3.39847208      -4.29157500      -0.09230475
H        1.87847903      -3.94625728       0.81408900
H        0.18280005      -2.35240811       0.00458974
H       -1.97765549      -1.44268849      -0.26034368
H       -1.80550918      -1.07478546       2.22609572
H       -3.38581868      -0.52430955       1.56545365
H       -2.11758110       0.69061491       1.97674951
H       -3.61583521       2.51940872      -1.83115624
H       -4.05183256       1.31137855      -3.10546602
H       -5.24741141       1.74496930      -1.81572988
H       -0.32101612       1.90053788       0.37709310
