42
Properties=species:S:1:pos:R:3 075433=T pbc="F F F"
C       -2.33915886       2.48200393      -1.50001051
C       -2.12887743       1.47264429      -0.34158969
C       -3.52151379       1.19198074       0.27321151
C       -1.17196318       2.10698209       0.71028459
O        0.04347049       1.39772925       0.81641603
C        0.61492120       1.22503893      -0.46518739
C        2.01217120       0.69171722      -0.28688680
C        2.21300202      -0.60140755       0.22214298
C        3.50621353      -1.09763509       0.40732238
C        4.62553187      -0.30809951       0.09308549
N        5.95624130      -0.82210709       0.28504900
O        6.95450768      -0.12497017       0.00839717
O        6.15095880      -2.09265649       0.77669411
C        4.42242243       0.99041242      -0.40827019
C        3.12857175       1.48627324      -0.59334087
O       -0.11380654       0.31432966      -1.28014827
C       -1.48159992       0.16494371      -0.92420365
C       -1.65575412      -1.12922902      -0.12618367
C       -1.91260000      -2.32435772      -0.82939371
C       -2.01630819      -3.54466773      -0.15621052
C       -1.84998078      -3.59686012       1.22739711
C       -1.57563006      -2.42918163       1.93919293
C       -1.47016923      -1.20552118       1.27128686
H       -3.05500352       2.08100076      -2.25008014
H       -2.75104657       3.44112033      -1.11725592
H       -1.38505785       2.70090884      -2.02298735
H       -4.01554856       2.14322339       0.56755060
H       -4.17309420       0.67158682      -0.46151356
H       -3.45419906       0.56447687       1.18397598
H       -1.64351169       2.10828028       1.71633459
H       -0.95466771       3.17824408       0.49560643
H        0.67829342       2.20244301      -0.99820649
H        1.36697383      -1.22738053       0.47577943
H        3.62926794      -2.09926698       0.79830949
H        5.26433608       1.62413474      -0.65584067
H        3.00095742       2.49137159      -0.97582061
H       -2.01701488      -0.01297332      -1.88372502
H       -2.02821319      -2.31588580      -1.90618191
H       -2.21951107      -4.45209319      -0.71015314
H       -1.92893546      -4.54275378       1.74749765
H       -1.44199566      -2.47156580       3.01251783
H       -1.26267943      -0.33223350       1.86513792
