42
Properties=species:S:1:pos:R:3 076554=T pbc="F F F"
C        2.35059267       1.87135346       0.44719969
N        1.48942657       0.70936229       0.74242261
C        2.07301249      -0.07383777       1.84632573
C        2.75919777      -1.30466455       1.26917231
C        2.41146643      -1.32387472      -0.21603334
C        1.92170714      -2.69915310      -0.71327731
C        0.56401371      -3.13693786      -0.11533599
O       -0.08347539      -3.96805042      -1.04705035
C       -0.34345050      -1.93865335       0.26374953
O       -1.71481133      -2.32760446       0.23167577
C       -2.73346619      -1.38473630       0.32770446
O       -3.90162140      -1.75946363       0.61386607
C       -2.43846173       0.02714121       0.03202191
C       -3.44164727       1.01420738       0.16223126
C       -3.14800397       2.30215096      -0.26572268
C       -1.95134560       2.62036405      -0.81263537
C       -0.93429363       1.68451414      -0.95895426
C       -1.14750345       0.37096464      -0.47203905
C       -0.07614356      -0.70746799      -0.64200608
C        1.38983406      -0.18990378      -0.42983728
O       -1.95251762       3.95183525      -1.18140238
C       -3.22948713       4.50588775      -0.83580255
O       -3.96273162       3.41787260      -0.25644298
H        2.39541888       2.54487170       1.33001669
H        3.38243465       1.55064997       0.17906965
H        1.93379992       2.46828040      -0.38880742
H        1.25989645      -0.37908564       2.53740924
H        2.79209389       0.51181605       2.46469838
H        2.41523975      -2.21690964       1.80283156
H        3.86089426      -1.22517427       1.40144781
H        3.33539277      -1.06952034      -0.78456226
H        2.69074188      -3.47167332      -0.49318525
H        1.83395796      -2.64299271      -1.82133838
H        0.77352095      -3.71679889       0.81532601
H       -0.65892508      -4.59292002      -0.53266743
H       -0.12445946      -1.65631586       1.31246360
H       -4.42434359       0.78215816       0.55255329
H       -0.02055003       1.96924411      -1.45660830
H       -0.16291661      -1.05319028      -1.69683411
H        1.66864278       0.33966100      -1.37163668
H       -3.10472211       5.32197887      -0.09354020
H       -3.74640771       4.87461492      -1.74646590
