35
Properties=species:S:1:pos:R:3 077103=T pbc="F F F"
C       -3.00114214      -2.29835378       0.95973644
C       -2.68566530      -0.81084796       1.11066595
C       -2.38120259      -0.14204128      -0.24549914
N       -1.18570899      -0.74423705      -0.84684911
C        0.12806905      -0.31661003      -0.46048454
C        1.25469013      -1.07054683      -0.80484126
C        2.53842070      -0.65918944      -0.40672573
C        3.73073715      -1.49976574      -0.78185347
C        2.68398534       0.52114753       0.36280708
C        4.03953664       0.99632438       0.81626531
C        1.54584424       1.28019574       0.68597727
C        0.27518940       0.86934701       0.26935630
N       -0.88649950       1.65475538       0.57613992
C       -2.17417014       1.38462960      -0.07186372
C       -2.22861256       2.10848423      -1.42113843
H       -3.85838316      -2.44402003       0.26859698
H       -2.11739452      -2.84719340       0.57136780
H       -3.26878152      -2.72252363       1.95037437
H       -3.56525885      -0.31620401       1.57741074
H       -1.82106688      -0.69326917       1.79970770
H       -3.25238863      -0.31469295      -0.91689117
H       -1.30051079      -1.52799382      -1.52876682
H        1.12690832      -1.98241648      -1.37561748
H        3.45165975      -2.31895682      -1.47830362
H        4.49554299      -0.87314346      -1.28639005
H        4.16993659      -1.95391541       0.13082098
H        3.96030215       1.86665334       1.50201037
H        4.64257072       1.30130514      -0.06433737
H        4.56596368       0.18444012       1.36019366
H        1.64561646       2.19641261       1.25535247
H       -0.80294094       2.48568973       1.20462824
H       -2.99050899       1.79962776       0.56033429
H       -1.43393034       1.73552091      -2.10191753
H       -3.21807117       1.95232009      -1.90111444
H       -2.08273630       3.19906770      -1.26915198
