52
Properties=species:S:1:pos:R:3 077972=T pbc="F F F"
C       -4.94627464      -4.77441938      -0.34981581
C       -4.72851055      -3.30693326      -0.70636027
C       -3.41623329      -2.78192619      -0.11315005
C       -3.20156437      -1.30680439      -0.47178395
C       -1.88856818      -0.78177847       0.12060975
C       -1.67448329       0.69759511      -0.23883808
C       -0.36476909       1.26374538       0.35384158
C        0.85327361       0.76499912      -0.37583563
C        2.01958794       1.41437894      -0.28545724
S        3.48416537       0.74009591      -1.05224079
O        3.04749932       0.23402742      -2.42134330
C        3.91219862      -0.70682642      -0.10603650
C        5.00692170      -0.65637870       0.76637948
C        5.35260813      -1.77877091       1.52556743
C        4.60684610      -2.95591062       1.41412560
C        3.51627166      -3.01228931       0.54135934
C        3.16892360      -1.89145079      -0.21914682
C        2.13885972       2.75341016       0.39718970
C        0.81117065       3.33681723       0.98089790
C        0.67976533       4.81906479       0.64864136
C       -0.03436952       4.83813177      -0.69871925
C       -0.63103246       3.43952026      -0.86288534
N       -0.39894183       2.73929653       0.40681016
H       -5.90208546      -5.12657802      -0.79162973
H       -4.99717551      -4.90006330       0.75265661
H       -4.11838714      -5.39613116      -0.75227235
H       -4.70668887      -3.20523575      -1.81340415
H       -5.58198232      -2.71152873      -0.31465347
H       -3.44307501      -2.89135881       0.99362650
H       -2.56783783      -3.38387787      -0.50757809
H       -4.05000330      -0.70509119      -0.07723605
H       -3.17499477      -1.19763161      -1.57853447
H       -1.04665953      -1.39290261      -0.26867680
H       -1.91774127      -0.89013171       1.22726500
H       -2.53022320       1.28208884       0.16585011
H       -1.67196021       0.81802048      -1.34491180
H       -0.28571709       0.90063858       1.40311535
H        0.79670928      -0.15628395      -0.94391180
H        5.58751122       0.25250787       0.86102682
H        6.19707149      -1.73581601       2.20104458
H        4.87482646      -3.82416836       2.00207368
H        2.94122052      -3.92503546       0.45303062
H        2.32931263      -1.95287378      -0.89794340
H        2.88232941       2.66454177       1.21811894
H        2.57514022       3.44822225      -0.35327465
H        0.80198011       3.19626788       2.08453256
H        1.65589323       5.35095352       0.61427985
H        0.03716364       5.30975627       1.41301113
H       -0.82870435       5.61618116      -0.70940885
H        0.69079440       5.04442672      -1.51615387
H       -1.72218297       3.50689679      -1.06108006
H       -0.13787828       2.91661198      -1.71277150
