29
Properties=species:S:1:pos:R:3 077007=T pbc="F F F"
C       -4.26237860      -1.39777456      -0.90472674
C       -3.78438168       0.04954700      -0.91484242
O       -2.41165991       0.12862124      -0.53688902
C       -1.96652543      -0.00959587       0.78316928
O       -2.78896348      -0.14360915       1.73016124
C       -0.50026314       0.05304921       1.07675596
C       -0.00858883       1.50806368       1.05354602
C        1.50716880       1.55562150       1.28936231
C        2.23997187       0.59963626       0.38181769
C        3.60523136       0.78195462       0.11412777
C        4.28745926      -0.12350025      -0.70447480
C        3.61412153      -1.21957389      -1.25162939
C        2.25776672      -1.41710724      -0.97706416
C        1.57026828      -0.51874849      -0.15413798
O        0.21125767      -0.72324408       0.11144567
H       -3.62915006      -2.01036977      -1.58079996
H       -4.20951108      -1.81608714       0.12200212
H       -5.31478623      -1.44575944      -1.25537763
H       -4.40997520       0.66809367      -0.23512371
H       -3.89127801       0.45306042      -1.94371900
H       -0.30855096      -0.37672920       2.08543577
H       -0.52284702       2.09704765       1.84419287
H       -0.23857625       1.96861257       0.06678006
H        1.72591309       1.28415947       2.34476884
H        1.86446429       2.59428316       1.11763772
H        4.13869772       1.62423647       0.53699974
H        5.33918023       0.02359669      -0.91356663
H        4.14446242      -1.91802101      -1.88595039
H        1.74147265      -2.26946352      -1.39990121
