35
Properties=species:S:1:pos:R:3 078673=T pbc="F F F"
C        3.50892505       1.59177886      -0.55825815
C        2.49394170       1.09451245       0.41309978
O        2.68413496       1.25138482       1.64970048
O        1.32469797       0.49227649      -0.06325305
C        0.26091769       0.04685062       0.78268905
C       -0.56211601       1.24562956       1.29577151
C       -1.25129703       2.00013735       0.14824701
C       -2.12259859       3.13609194       0.70308948
C       -2.04194581       1.02004186      -0.68633781
O       -3.17642009       1.28072905      -1.06154333
C       -1.37771611      -0.24812047      -1.14825269
C       -0.63800366      -0.96348792       0.01237365
C        0.17343265      -2.19928279      -0.50789565
C       -0.73411345      -3.22521393      -1.21291271
C        0.93861072      -2.91111102       0.62379097
H        4.53190973       1.42658930      -0.15919544
H        3.35294225       2.67661830      -0.73226693
H        3.40815907       1.04998872      -1.52201778
H        0.68240330      -0.45594936       1.67924562
H       -1.32689220       0.87524399       2.01487263
H        0.10294686       1.94222229       1.85038217
H       -0.47114809       2.45496193      -0.50123655
H       -2.57133031       3.71699321      -0.13085443
H       -1.50359264       3.83058486       1.31032060
H       -2.93728611       2.73060633       1.34118958
H       -0.66094250       0.00354775      -1.95961853
H       -2.15937382      -0.91578696      -1.56823825
H       -1.40933303      -1.33660438       0.72435808
H        0.92415007      -1.85178980      -1.25212510
H       -0.16487812      -4.14475064      -1.46747806
H       -1.11772374      -2.82086071      -2.17181682
H       -1.58897902      -3.50589307      -0.56106315
H        1.78283230      -2.28669408       0.98198960
H        1.38650798      -3.86081290       0.26077655
H        0.25917803      -3.14043166       1.47246769
