25
Properties=species:S:1:pos:R:3 078544=T pbc="F F F"
C        3.11474175      -0.10986587       0.01261183
C        1.67868757      -0.28569710       0.52461958
C        1.38145746      -1.77701308       0.73351166
C        0.68167690       0.38609273      -0.45167776
C       -0.77877227       0.42104328       0.07156449
C       -1.57140209      -0.78258867      -0.40011986
C       -2.90822448      -0.75784233      -0.40028159
O       -3.60426254       0.41841446      -0.09743871
C       -2.94527178       1.64766310      -0.01118178
O       -3.58891985       2.68681215       0.28975718
C       -1.48540093       1.72732639      -0.34942899
H        3.24136865      -0.60366797      -0.97497773
H        3.35754367       0.96918345      -0.09189641
H        3.83738055      -0.55307887       0.73080378
H        1.61132173       0.22438383       1.51125749
H        2.16174285      -2.23873657       1.37559686
H        1.35889485      -2.31292488      -0.23952446
H        0.40960225      -1.91060807       1.25188467
H        1.03143485       1.43114092      -0.60898011
H        0.72671118      -0.10819051      -1.44804748
H       -0.77177784       0.40333330       1.18463180
H       -1.06685042      -1.69506278      -0.69035569
H       -3.46324710      -1.65203083      -0.65184804
H       -1.38521986       1.88001151      -1.44612274
H       -1.02321509       2.59190242       0.17564202
