30
Properties=species:S:1:pos:R:3 079805=T pbc="F F F"
C       -3.70724202       2.15919154       0.84577345
C       -2.68800870       1.27646816       0.17450370
C       -1.55049227       1.84543272      -0.28266018
C       -0.37534765       1.12016599      -0.88474224
C        0.43023012       0.37240910       0.19171189
C        1.68611087      -0.32923675      -0.37844155
C        1.29849237      -1.56730870      -1.20892613
C        2.63459076      -0.72234404       0.77687636
C        3.95635566      -1.22193098       0.27588198
O        4.80211117      -0.41291010      -0.19277572
O        4.23890621      -2.58390258       0.30566293
C       -2.96576029      -0.18357891       0.14047573
O       -2.36475088      -0.95261380      -0.65679942
O       -3.93881950      -0.71382573       0.98323902
H       -3.52658383       2.16248740       1.94212669
H       -3.65678189       3.20347371       0.46968790
H       -4.73516743       1.78308404       0.65235012
H       -1.44402537       2.92151098      -0.20636286
H       -0.71352475       0.45677215      -1.70317750
H        0.29072386       1.87736482      -1.35203746
H        0.74393338       1.12169127       0.95182943
H       -0.20775474      -0.37209043       0.71362348
H        2.22309873       0.38776838      -1.03982096
H        2.20403899      -2.06599668      -1.61205064
H        0.67502271      -1.28289373      -2.07975802
H        0.73734559      -2.29661231      -0.58664586
H        2.82904401       0.16008525       1.42395434
H        2.15817142      -1.50176062       1.41101041
H        5.12187974      -2.93786339      -0.04300973
H       -4.15579630      -1.70303674       0.96850079
