50
Properties=species:S:1:pos:R:3 081673=T pbc="F F F"
C        0.67017149       5.21267660      -2.00773402
O        0.34241796       3.91643927      -1.52219380
C        0.49710322       3.54959096      -0.18061675
O        0.94921517       4.38700520       0.64833517
C        0.13631380       2.16989662       0.24050817
C        0.09764953       1.80298247       1.54589145
O        0.40847651       2.72389784       2.54714520
C       -0.23610526       0.38012095       1.96930773
C        1.06774454      -0.41910828       2.23155958
C        1.65509121      -0.87731947       0.93096693
C        0.96187604      -0.86793188      -0.26250811
N        1.71080444      -1.36509041      -1.27246547
C        2.87795715      -1.72100534      -0.69880970
C        3.98374029      -2.29753370      -1.32172359
C        5.10653907      -2.59429890      -0.52644692
C        5.10058859      -2.31121723       0.85832671
C        3.97255597      -1.72674868       1.46285543
C        2.87746402      -1.44333799       0.64979451
C       -0.40369836      -0.25244480      -0.37944608
C       -0.27419954       1.20651395      -0.85760321
N       -1.05953327      -0.32517743       0.95214052
C       -2.46961736       0.12442262       0.96036340
C       -3.33190447      -0.79377729       0.13480858
C       -3.54307430      -2.11915214       0.54880043
C       -4.32278074      -2.98313136      -0.22625885
C       -4.89320131      -2.53135373      -1.41951858
C       -4.68386528      -1.21504437      -1.84019681
C       -3.90503380      -0.34759701      -1.06798856
H        0.46079732       5.25773368      -3.09612240
H        1.74819748       5.42019162      -1.83966580
H        0.05479499       5.97911982      -1.49069206
H        0.40559948       2.46257980       3.52587285
H       -0.78789258       0.42336259       2.93488851
H        1.80668574       0.19546000       2.79002308
H        0.82933714      -1.31659115       2.84146952
H        1.44416358      -1.44720872      -2.27885563
H        3.97978442      -2.51234654      -2.38248635
H        5.98101297      -3.04327557      -0.97907042
H        5.97048105      -2.54469708       1.45825147
H        3.95920330      -1.50407707       2.52196454
H       -0.97679323      -0.84091865      -1.12798905
H       -1.24905815       1.54011347      -1.27215482
H        0.45792270       1.25874865      -1.69384409
H       -2.56258336       1.17840629       0.62102058
H       -2.86533958       0.09783255       1.99945254
H       -3.10071665      -2.48171194       1.46857697
H       -4.48291782      -4.00355175       0.09705193
H       -5.49557134      -3.20158946      -2.01898744
H       -5.12346347      -0.86733218      -2.76609983
H       -3.74633932       0.66747515      -1.40989748
