30
Properties=species:S:1:pos:R:3 082132=T pbc="F F F"
C       -0.25167107       3.23840317      -0.48652729
C        0.69694537       2.04247437      -0.39240003
C       -0.02519039       0.70116069      -0.64193175
C       -0.99617044       0.37302846       0.46836587
C       -1.91829763      -0.58569786       0.31676994
C       -2.88480113      -0.95684531       1.36995511
C       -2.91242874      -0.28393669       2.70954641
O       -3.71498621      -1.87389772       1.13132077
C        0.98923357      -0.41556822      -0.79664293
C        1.78575725      -0.82349321       0.29122545
C        2.72385535      -1.84822894       0.13578981
C        2.88007187      -2.47281268      -1.10382121
C        2.09918063      -2.07301063      -2.19094963
C        1.15922311      -1.04867984      -2.04112352
H        0.32071329       4.17762221      -0.33439818
H       -0.72970340       3.27456862      -1.48847910
H       -1.03948908       3.17794051       0.29332204
H        1.49420112       2.17708692      -1.15649858
H        1.18377714       2.04193613       0.60752820
H       -0.60787699       0.80658896      -1.58559313
H       -0.92690639       0.92152043       1.39947252
H       -1.96508793      -1.12568287      -0.62219504
H       -3.71500450      -0.71497347       3.34523468
H       -3.10870984       0.80125834       2.58195135
H       -1.93937467      -0.42915469       3.22388668
H        1.67743306      -0.34999199       1.25898072
H        3.33040398      -2.15786144       0.97703517
H        3.60706624      -3.26583193      -1.22235010
H        2.22278672      -2.55662428      -3.15133837
H        0.56504970      -0.75129709      -2.89613584
