21
Properties=species:S:1:pos:R:3 082105=T pbc="F F F"
C        2.00647394      -1.49539175      -0.58894203
C        0.88215897      -0.45929347      -0.45255196
C        1.29603825       0.61659468       0.52922861
C        0.58053620       1.71943904       0.77433105
C       -0.79023671       1.92995481       0.28969304
O       -1.09537249       3.03790516      -0.22603609
C       -1.85424597       0.89416824       0.50832663
C       -1.67469608      -0.32496554      -0.39619832
C       -0.43234608      -1.15413322      -0.03877990
H        1.74595269      -2.24801293      -1.36361098
H        2.95079195      -0.99962216      -0.90148720
H        2.17620637      -2.01790777       0.37741560
H        0.75317565       0.01030194      -1.45330343
H        2.28039837       0.55628200       0.98032688
H        1.03458515       2.51041910       1.35840419
H       -1.85154356       0.58050049       1.57487804
H       -2.85047610       1.34308259       0.30180415
H       -2.56917504      -0.97423461      -0.27522809
H       -1.64177214      -0.01074143      -1.46272142
H       -0.52366499      -2.12004363      -0.58322510
H       -0.42278838      -1.39430155       1.04767633
