26
Properties=species:S:1:pos:R:3 082443=T pbc="F F F"
C        4.09797800       0.40903736       0.80297155
O        2.80596715       0.00784697       1.24195935
C        2.03986922      -0.94096288       0.55866398
O        2.47257909      -1.47105966      -0.50212135
C        0.67054028      -1.28576607       1.07043285
N        0.40590074      -2.71638484       0.90417262
C       -0.36576800      -0.46296921       0.33698391
C       -0.96840676       0.63819192       0.96830054
C       -1.90823414       1.41793191       0.28779888
C       -2.24467020       1.12237768      -1.04132196
C       -3.28143927       1.93607459      -1.75755279
C       -1.65022380       0.02055355      -1.67337296
C       -0.71037623      -0.75987218      -0.99414546
H        4.78144495      -0.46615359       0.78282736
H        4.03246226       0.85788086      -0.21082077
H        4.50306475       1.16573473       1.50566741
H        0.63866009      -1.04853338       2.15880501
H       -0.53112606      -2.92598635       1.32007602
H        1.10249986      -3.24831757       1.47590751
H       -0.71339986       0.89356883       1.98934057
H       -2.37086257       2.25453766       0.79687400
H       -4.28473578       1.49706756      -1.57671654
H       -3.27460782       2.98619084      -1.39522632
H       -3.08315002       1.94916157      -2.85052247
H       -1.91141939      -0.23267406      -2.69352904
H       -0.25254649      -1.59747627      -1.50545189
