43
Properties=species:S:1:pos:R:3 083911=T pbc="F F F"
C       -3.31921036      -3.23066505      -0.04685689
O       -3.11683508      -1.84782429      -0.31758784
C       -4.08882561      -0.84917087      -0.13947832
C       -5.38634864      -1.14860932       0.32115202
C       -6.33968030      -0.13681844       0.46158476
F       -7.58448032      -0.44549289       0.90401905
C       -6.01377648       1.18315991       0.13595129
Cl      -7.21226217       2.45680425       0.28966020
C       -4.72942387       1.49180782      -0.31961360
C       -3.75383764       0.48803601      -0.43460655
C       -2.38581035       0.83334757      -0.96510650
C       -1.66468512       1.96345489      -0.23002133
C       -1.23366499       0.52156871      -0.01249632
C        0.07885960       0.11828734      -0.69456659
N        1.21909241       0.44151522       0.16072861
C        2.56056223       0.13101513      -0.22694521
O        2.78193157      -0.43891047      -1.32984102
O        3.61259567       0.47055813       0.63691651
C        5.01024357       0.23504783       0.40825737
C        5.76809385       0.77847620       1.62920659
C        5.29246042      -1.27414688       0.27923797
C        5.48879568       0.98650564      -0.84882551
H       -3.56767258      -3.37724496       1.02546747
H       -2.38507626      -3.78410353      -0.27363184
H       -4.13359554      -3.63004928      -0.68743881
H       -5.66989811      -2.16276764       0.56685618
H       -4.48989072       2.51498152      -0.58272454
H       -2.18447760       0.76476369      -2.05565241
H       -0.99381575       2.57243059      -0.87283524
H       -2.19686110       2.40071464       0.64183872
H       -1.49653550       0.09600325       0.98071465
H        0.05412095      -0.97807039      -0.87158280
H        0.20354418       0.62517977      -1.67723872
H        1.06867329       0.91526928       1.08051340
H        5.57113675       1.86529736       1.75256361
H        5.43178922       0.26062821       2.55327246
H        6.86400480       0.62804112       1.51845544
H        6.38653788      -1.46424943       0.23102042
H        4.83770266      -1.69421548      -0.64084037
H        4.87644592      -1.81791100       1.15430210
H        6.59268907       0.90944102      -0.95345929
H        5.21331336       2.06075657      -0.78112081
H        5.03407103       0.56715826      -1.76924831
