41
Properties=species:S:1:pos:R:3 083612=T pbc="F F F"
C        4.80266225       0.83114315       0.30907179
C        4.48908614       0.61568293      -1.16985680
C        3.40620577      -0.45043065      -1.40757017
C        2.00852438      -0.03525811      -0.89926689
C        1.65410478      -0.70884185       0.43586833
C        0.40395856      -0.12875900       1.14198894
C       -1.01551434      -0.33558487       0.48478946
C       -1.16198744      -1.81337927       0.03868167
C       -2.06851058      -0.00490687       1.61355499
C       -3.53986386      -0.43829864       1.39113980
C       -4.34799947       0.47998118       0.46589211
C       -3.76376195       0.56355589      -0.94085597
C       -2.47658162       1.32485703      -0.90220081
O       -2.50175504       2.54589901      -0.95735991
C       -1.15792827       0.61277103      -0.76413475
H        5.04681030      -0.13493111       0.79981191
H        5.67781419       1.50761607       0.40584249
H        3.94191233       1.30644774       0.82402342
H        5.42085394       0.28796895      -1.67991519
H        4.17961701       1.58039312      -1.62761653
H        3.34214968      -0.61278503      -2.50603924
H        3.72506334      -1.42087216      -0.96677046
H        1.26659660      -0.35357968      -1.65895971
H        1.94632015       1.07006100      -0.80146467
H        1.55975999      -1.80577961       0.29858360
H        2.50608074      -0.57333726       1.13476105
H        0.40568853      -0.60595188       2.14685452
H        0.57169964       0.95426922       1.33410707
H       -1.06599023      -2.49732235       0.90911578
H       -2.13189625      -1.99871956      -0.46034676
H       -0.39845769      -2.08655916      -0.71728103
H       -2.03712519       1.08261731       1.84622123
H       -1.75956600      -0.51937723       2.55021057
H       -3.61986009      -1.49128047       1.05755505
H       -4.04559134      -0.41155365       2.38147164
H       -5.38233065       0.07915217       0.39325434
H       -4.42043830       1.49676429       0.91239363
H       -4.48128852       1.09076966      -1.60657870
H       -3.61083633      -0.45234822      -1.36096020
H       -0.37501705       1.39988962      -0.74054234
H       -0.99260814       0.05001725      -1.70747325
