43
Properties=species:S:1:pos:R:3 084228=T pbc="F F F"
C        2.11568841       3.28067321      -0.03935446
C        1.03922659       2.91015207      -1.06841394
C       -0.06764700       3.99286590      -1.06441802
O        1.64235300       2.93412586      -2.34156404
C        0.51046675       1.49627516      -0.73854557
C       -0.46817714       1.28530584       0.26375436
F       -1.01161836       2.32782813       0.93876144
C       -0.89978061      -0.01831350       0.56439209
C       -1.92889337      -0.28716158       1.59509002
C       -1.90426708       0.36796144       2.84066981
C       -2.87269071       0.08260325       3.80825760
C       -3.86615460      -0.86489372       3.54834158
F       -4.80287478      -1.14096662       4.48882783
C       -3.88800773      -1.53463582       2.32234800
C       -2.92135063      -1.25323690       1.35210154
N       -0.36922371      -1.06898358      -0.10930118
C        0.59469964      -0.93213387      -1.05618157
C        1.19390542      -2.18131598      -1.71022829
O        1.41648243      -1.93723871      -3.08106161
C        2.57158381      -2.49325670      -1.07106056
N        2.47669798      -2.69497421       0.37486246
C        0.24911936      -3.41391494      -1.58921696
F       -0.99208202      -3.11899791      -2.12807686
F        0.77977032      -4.48663604      -2.28515049
F        0.07331826      -3.79243286      -0.26890961
C        1.08354189       0.35469363      -1.35163957
F        2.12932773       0.48018380      -2.20946465
H        2.53119160       4.28778755      -0.25925323
H        2.94917065       2.54611338      -0.07329777
H        1.69383468       3.28769356       0.98896678
H       -0.98208179       3.61781164      -1.57224492
H       -0.32502222       4.33162010      -0.03976342
H        0.28257704       4.89426537      -1.61252099
H        0.94308266       2.70912774      -3.01159963
H       -1.12424087       1.08012019       3.07720640
H       -2.84667559       0.59112273       4.76347094
H       -4.65322147      -2.27374773       2.12277387
H       -2.95426031      -1.78157658       0.40692670
H        0.55343647      -1.66383900      -3.49070637
H        2.99541663      -3.40908366      -1.53977182
H        3.28674098      -1.66680399      -1.28245073
H        2.37632244      -1.76075643       0.83422152
H        3.39031524      -3.08343021       0.70322332
