57
Properties=species:S:1:pos:R:3 085945=T pbc="F F F"
C        0.80833024      -4.39440518       0.31683258
O       -0.50328364      -3.92462561       0.54524150
C       -0.66777792      -2.65681630      -0.05371049
O        0.00059125      -1.67762757       0.71737662
C       -0.14000660      -0.38987389       0.13856098
C       -1.32345708       0.37326371       0.80469434
O       -2.48366868       0.21910264       0.00555239
C       -3.64664486       0.44536700       0.77341634
C       -4.83952825       0.41132959      -0.13716935
C       -5.33336082      -0.81869940      -0.60201426
C       -6.42409710      -0.85450021      -1.47672074
C       -7.02264416       0.33573881      -1.89930554
C       -6.52784024       1.56404929      -1.45244904
C       -5.43665178       1.60476388      -0.57854682
O       -1.05433513       1.75789455       1.01444867
C       -0.40476125       2.32867718      -0.10506915
C        1.05456885       1.83594841      -0.20197564
O        1.87784339       2.70193694       0.56396201
C        3.10153797       2.95871551      -0.09841515
O        3.98064352       3.63965761       0.77139629
C        4.50565086       2.73784967       1.72159928
C        1.16712600       0.39346687       0.36045477
N        2.33012757      -0.32779902      -0.20432168
C        2.41424163      -0.63853003      -1.63709181
C        3.41946015      -0.75276422       0.64011879
O        3.36810988      -0.57909518       1.88929308
O        4.54296358      -1.36191473       0.06910043
C        5.66390048      -1.77908710       0.83857406
H        1.57240966      -3.69247378       0.72017378
H        0.93408918      -5.36205933       0.84372001
H        0.98460437      -4.57670733      -0.76651840
H       -0.30808811      -2.66571161      -1.11154932
H       -1.75735795      -2.43682676      -0.07320942
H       -0.32334865      -0.42567401      -0.96197616
H       -1.46823387      -0.08392564       1.81259097
H       -3.76338168      -0.35168865       1.54233289
H       -3.60153907       1.42880622       1.29618978
H       -4.87308750      -1.74718454      -0.28762707
H       -6.80415172      -1.80462286      -1.82869125
H       -7.86699438       0.30670335      -2.57606523
H       -6.98817060       2.48554916      -1.78602552
H       -5.05869973       2.56449110      -0.24785743
H       -0.95919332       2.09822804      -1.04461910
H       -0.42060343       3.43456874      -0.00138024
H        1.30756596       1.85459327      -1.28898706
H        3.57387481       2.02986000      -0.49921502
H        2.90864056       3.62562953      -0.96659034
H        5.16663483       3.29853793       2.41357400
H        3.69894653       2.27428287       2.33167342
H        5.12277319       1.95185592       1.23240375
H        1.28079024       0.48553628       1.46442749
H        2.45247180      -1.73984654      -1.77784880
H        1.54377458      -0.24825653      -2.20104791
H        3.33073305      -0.18125204      -2.06739638
H        6.11054537      -0.90798055       1.36298638
H        5.35325124      -2.54556294       1.57936703
H        6.42470681      -2.22089252       0.16333266
