64
Properties=species:S:1:pos:R:3 085064=T pbc="F F F"
C       -4.51371307      -0.44889795       1.44591771
C       -3.54424710      -0.39084143       0.26579696
N       -3.33024713       1.00094765      -0.14223270
C       -3.27156862       1.41098680      -1.51411368
O       -3.49495206       0.58237709      -2.44130109
O       -2.96732094       2.74309498      -1.81380778
C       -3.02339319       3.28293732      -3.13405240
C       -4.45521560       3.49601204      -3.54823101
C       -5.17792948       4.58776123      -3.04111486
C       -6.52187814       4.76992492      -3.39061610
C       -7.15477860       3.85932076      -4.24085872
C       -6.44419583       2.76515137      -4.74191367
C       -5.09959625       2.58201140      -4.39761818
C       -2.22979402      -1.02995533       0.62242828
O       -1.90189099      -2.11308819       0.06687176
N       -1.35858470      -0.42562843       1.59183185
C       -0.03654629      -0.97952103       1.89812569
C        0.56431497      -0.29739214       3.13242490
C        0.87532343      -0.81066995       0.71038707
O        1.15250570       0.35231615       0.30334752
N        1.37769524      -1.96434861       0.01687658
C        2.27661205      -1.87265266      -1.13579490
C        1.77776782      -2.77935703      -2.26209091
C        3.66573890      -2.24836954      -0.71600495
O        3.90810180      -3.41571300      -0.30581165
O        4.67874233      -1.28508224      -0.76021473
C        5.97505672      -1.49032729      -0.20401195
C        5.90541593      -1.41830908       1.29682909
C        5.69857962      -0.18293854       1.92859551
C        5.58786849      -0.11019452       3.32028363
C        5.67220404      -1.27406459       4.10494526
N        5.55082832      -1.19612682       5.53708364
O        5.55873034      -2.23174044       6.23455282
O        5.44789973       0.02619016       6.16470419
C        5.87051466      -2.51296956       3.46554137
C        5.98347363      -2.58400237       2.07325613
H       -5.49412700      -0.02699119       1.14203194
H       -4.66925344      -1.50205732       1.76464265
H       -4.12850024       0.13388587       2.30836396
H       -4.00835795      -0.96305729      -0.56699376
H       -3.11636910       1.71779885       0.58873682
H       -2.48822797       2.61579840      -3.84794416
H       -2.49266354       4.25925932      -3.14130726
H       -4.69979365       5.29410631      -2.37354429
H       -7.07366633       5.61378264      -2.99624610
H       -8.19666373       3.99737579      -4.50574113
H       -6.93658024       2.05595786      -5.39304682
H       -4.56425347       1.72652330      -4.78799567
H       -1.67964915       0.43751073       2.08586856
H       -0.14956267      -2.05881634       2.14159922
H        0.68017208       0.79501660       2.96259899
H        1.56091186      -0.73308775       3.36550099
H       -0.10214101      -0.45506049       4.00853184
H        1.15647694      -2.91326998       0.39570989
H        2.29561750      -0.83353770      -1.53150598
H        2.46284982      -2.71572657      -3.13479781
H        0.76556642      -2.45256219      -2.58656381
H        1.72088285      -3.83691876      -1.92429651
H        6.65275241      -0.69227293      -0.57565303
H        6.39218410      -2.46201060      -0.54959000
H        5.61562017       0.72281321       1.33979473
H        5.43061907       0.85679772       3.78150107
H        5.93709265      -3.42890714       4.03920220
H        6.12754191      -3.54919148       1.60113282
