51
Properties=species:S:1:pos:R:3 086032=T pbc="F F F"
C        6.20995141       0.79672498      -3.25181039
C        5.74468409       1.56141903      -2.01298462
C        5.19285017       0.63752244      -0.91654421
C        3.83589520       0.02311214      -1.29082549
C        3.26413319      -0.79659344      -0.12756993
C        1.90310768      -1.40308975      -0.49945374
C        1.35662318      -2.35351850       0.58093600
C        1.10367530      -1.70433109       1.95728330
C        0.17802418      -0.47406566       1.94318686
C       -1.23748851      -0.79577480       1.42806273
C       -2.20390827       0.41429301       1.55095281
C       -2.73379543       0.52472974       2.99576491
C       -3.36520086       0.29187678       0.52170421
O       -2.82002226       0.26351780      -0.77652521
C       -4.36405238       1.46488565       0.61478181
C       -5.42041180       1.36498143      -0.44261994
O       -5.34098089       2.07993566      -1.47888899
O       -6.46691473       0.45175327      -0.28409220
C       -7.48577062       0.27844824      -1.26123677
H        5.34839553       0.33312669      -3.77550627
H        6.70273149       1.50043219      -3.95534714
H        6.94106781       0.00884643      -2.97096087
H        6.61508740       2.11541416      -1.59933999
H        4.97749812       2.31140181      -2.30418732
H        5.07085134       1.24074201       0.00972753
H        5.92710805      -0.16900294      -0.69881875
H        3.95765928      -0.64113847      -2.17307178
H        3.12181469       0.83488894      -1.55258070
H        3.14695288      -0.13229282       0.75544045
H        3.97435781      -1.61269558       0.13155369
H        1.16973620      -0.59618722      -0.71046214
H        2.01630990      -1.99017560      -1.43715636
H        0.41511932      -2.81249038       0.21131314
H        2.07687650      -3.18942285       0.71732736
H        2.07596751      -1.41422848       2.40956705
H        0.66411386      -2.47301358       2.62989820
H        0.62820338       0.33740950       1.33329805
H        0.12237817      -0.09474916       2.98386337
H       -1.65319854      -1.66931712       1.97774166
H       -1.14516106      -1.09549312       0.36412349
H       -1.64092067       1.34611372       1.31694755
H       -3.22848461       1.50462534       3.15700769
H       -1.91117328       0.46545310       3.73590754
H       -3.45663893      -0.29126137       3.21101361
H       -3.91456441      -0.65834129       0.73277743
H       -3.37707264      -0.35575247      -1.31731670
H       -4.88056452       1.45584785       1.59696834
H       -3.82334129       2.43179696       0.51470086
H       -8.03311961       1.23280976      -1.41369047
H       -8.20027546      -0.49359018      -0.90982528
H       -7.03811289      -0.05558275      -2.22103437
