34
Properties=species:S:1:pos:R:3 087313=T pbc="F F F"
C       -2.39670834       1.62299395       0.38465915
C       -1.11020130       2.30059142      -0.07888380
C       -0.17059356       1.40090848      -0.91642585
C        0.53695358       0.20403686      -0.18148656
C       -0.45212894      -0.89816200       0.26510169
C       -0.23223579      -1.65170477       1.44460577
C       -1.09423467      -2.69007005       1.80785960
C       -2.16387655      -3.03420550       0.98400849
C       -2.35714771      -2.35939352      -0.21952572
C       -1.49853768      -1.32068511      -0.58951589
C        1.52388615      -0.50026014      -1.16137800
C        2.73957639       0.34541826      -1.56153258
C        3.43417403       0.89072497      -0.35451341
O        4.65161167       1.20620205      -0.42620719
N        2.71755432       1.10409800       0.86349768
C        1.32798487       0.78101704       0.99305620
O        0.74369786       1.04732441       2.07924071
H       -2.18726571       0.88610354       1.18592256
H       -3.08188961       2.38849413       0.80599752
H       -2.90936382       1.13160224      -0.46850113
H       -1.40252420       3.16290300      -0.71735968
H       -0.57857889       2.73175086       0.79343583
H        0.61513525       2.08771745      -1.29430831
H       -0.70298539       1.06343826      -1.82811165
H        0.61632980      -1.46037512       2.08620449
H       -0.92079202      -3.24069347       2.72352680
H       -2.82690130      -3.84216568       1.26521271
H       -3.16575050      -2.65171436      -0.87708960
H       -1.65878464      -0.86268782      -1.55315778
H        1.90769678      -1.43424583      -0.69014493
H        0.98741087      -0.80512413      -2.08706807
H        2.44007943       1.18043888      -2.22729562
H        3.44610583      -0.29489222      -2.13309671
H        3.22230378       1.51061591       1.68327329
