31
Properties=species:S:1:pos:R:3 087511=T pbc="F F F"
C       -6.14254931       3.29267133       1.68821751
C       -5.27032325       2.18783380       1.28948376
C       -4.55164196       1.27764569       0.96098340
C       -3.70977563       0.21202750       0.57632552
C       -2.98992082      -0.69726740       0.24788784
C       -2.12967102      -1.78120961      -0.14380399
C       -0.82755520      -1.58546758      -0.33982582
C        0.13017126      -2.59341935      -0.73002050
C        1.31051517      -2.00075425      -0.81552686
C        1.20850671      -0.51802125      -0.48422231
O        1.51902782       0.29267664      -1.60804512
C        2.86025652       0.12567532      -2.05458110
C        3.90619811       0.03746859      -0.92246743
C        3.35280172       0.61237240       0.37697290
C        2.03091509      -0.08111201       0.76610461
O        2.24694630      -1.15057294       1.65655363
O       -0.18041803      -0.37025907      -0.19535421
H       -7.07813751       2.88648942       2.12475917
H       -6.38700628       3.91034015       0.79962060
H       -5.62426653       3.91946135       2.44280203
H       -2.55721661      -2.76679628      -0.27761185
H       -0.06377638      -3.64210942      -0.91433214
H        2.21943040      -2.52335375      -1.08292260
H        2.93247744      -0.76748228      -2.71237994
H        3.10993461       1.00191243      -2.68975976
H        4.82614603       0.58994727      -1.21276972
H        4.19377445      -1.02393597      -0.76077141
H        4.10357483       0.50596069       1.19004010
H        3.17006633       1.70046110       0.23148491
H        1.43481546       0.67816119       1.31928342
H        2.95670027      -1.72934370       1.27387536
