39
Properties=species:S:1:pos:R:3 087465=T pbc="F F F"
N        2.03569709       2.98777691       0.80768769
C        0.60253439       2.70285793       0.76589997
C        0.18582941       1.64919396       1.81410362
C       -1.34213801       1.53521868       1.91671302
O       -1.89082096       0.90868308       0.75672761
C       -2.35318314       1.60550086      -0.36658463
O       -2.43859645       2.86442712      -0.34256136
C       -2.74351800       0.85795042      -1.58151905
C       -2.59353656      -0.54018818      -1.63253675
C       -2.95544189      -1.24886212      -2.78241336
C       -3.46915722      -0.57175845      -3.89074776
C       -3.62131325       0.81611748      -3.85207235
C       -3.26047743       1.53020717      -2.70509945
O        0.71373708       0.36643843       1.46862949
C        1.93184951      -0.14044143       1.93871329
O        2.61409934       0.51487435       2.77404167
C        2.41183122      -1.45252208       1.45364658
C        1.65505703      -2.18251806       0.51839941
C        2.10705360      -3.42253041       0.05642462
C        3.31573539      -3.94584078       0.52122101
C        4.07555652      -3.23001579       1.44920880
C        3.62867740      -1.98935550       1.91478467
H        2.31548349       3.21623198       1.78918048
H        2.56314001       2.13800438       0.50457384
H        0.33722410       2.34995056      -0.25381968
H        0.05377594       3.65135201       0.95229236
H        0.55205631       1.96465888       2.81674871
H       -1.58112220       0.89555960       2.79282624
H       -1.81063704       2.52652493       2.10278573
H       -2.19395151      -1.08662626      -0.78734656
H       -2.83637004      -2.32422365      -2.81420255
H       -3.74852151      -1.12235258      -4.77972367
H       -4.01880181       1.33976306      -4.71194100
H       -3.38653892       2.60565456      -2.69812961
H        0.71518483      -1.79720087       0.14279893
H        1.51928955      -3.97800528      -0.66301095
H        3.66362126      -4.90581282       0.16218544
H        5.01218920      -3.63656825       1.80838803
H        4.23450323      -1.45212384       2.63372752
