54
Properties=species:S:1:pos:R:3 089800=T pbc="F F F"
N        2.40915343      -0.49254164       2.45689077
C        1.97409700       0.08572371       1.55341959
C        1.41789987       0.82795337       0.40241267
C        2.30442367       0.66255702      -0.87358675
C        3.75916135       1.02449009      -0.67081034
C        4.22288993       2.31519285      -0.97964448
C        5.56700187       2.64720864      -0.78456954
C        6.45865306       1.69438114      -0.28493161
C        6.00809311       0.40696297       0.01846889
C        4.66481997       0.07075954      -0.17488298
C        1.34020684       2.31820806       0.79977603
O        0.75460231       3.05167032      -0.25387193
C       -0.62105654       2.73603802      -0.35114733
C       -0.91196813       1.24250212      -0.36464997
C       -2.25339991       0.80310086      -0.81505181
O       -2.33247475      -0.08902813      -1.70302529
C       -3.49499477       1.39178141      -0.26364176
C       -3.54606921       1.85379048       1.06443906
C       -4.72839582       2.39290883       1.58020990
C       -5.87188503       2.46730545       0.78146385
C       -5.83722662       1.99662737      -0.53366381
F       -6.94955975       2.06330771      -1.30605057
C       -4.65668211       1.45593801      -1.05378067
C       -0.00301005       0.34713682       0.09632733
N       -0.44813723      -0.99757771       0.40647513
C        0.24594445      -2.22667107       0.11797322
O        1.49179509      -2.23380766      -0.05751101
C       -0.48968283      -3.51377573       0.06491850
C       -1.86103124      -3.55437212      -0.25178742
C       -2.53907549      -4.77575836      -0.30587388
C       -1.85887521      -5.96829556      -0.05153412
C       -0.49532230      -5.94355878       0.25285179
Br       0.43559742      -7.57593080       0.59475321
C        0.18794827      -4.72365330       0.30724687
H        2.25530614      -0.36886032      -1.26836931
H        1.88838936       1.28372162      -1.69736310
H        3.54347588       3.06413129      -1.36724979
H        5.91738584       3.64359966      -1.02094036
H        7.49879248       1.95307524      -0.13454624
H        6.70004023      -0.33115564       0.40295464
H        4.33022556      -0.93176484       0.06134805
H        2.35329520       2.72641312       0.99825308
H        0.76564315       2.45342982       1.74804544
H       -1.00732271       3.17946196      -1.29300413
H       -1.16840652       3.22319302       0.48387951
H       -2.67954637       1.78016304       1.70946490
H       -4.75979937       2.74702568       2.60252922
H       -6.78586169       2.88434865       1.18439484
H       -4.64675322       1.09798813      -2.07601110
H       -1.40011189      -1.08478704       0.82809089
H       -2.40867410      -2.65014544      -0.48061834
H       -3.59295111      -4.79781994      -0.55180693
H       -2.39021789      -6.91029075      -0.09587945
H        1.24365036      -4.72230118       0.54921662
