26
Properties=species:S:1:pos:R:3 089347=T pbc="F F F"
C        3.72011091      -0.76098340       1.37852424
C        2.33533699      -0.22067860       1.00968795
O        2.47696196       1.05077932       0.43186433
C        1.63465308      -1.16847440       0.01639213
C        0.12021991      -0.92089607      -0.10185715
C       -0.22252033       0.38818923      -0.82878962
C       -1.69197766       0.46644158      -1.14065951
C       -2.60691789       0.63702363      -0.17469756
C       -4.07260607       0.71733920      -0.49066333
O       -4.35536318       1.89509009      -1.19679578
H        4.35256746      -0.85883031       0.47014902
H        4.21967717      -0.06787285       2.08823016
H        3.63002360      -1.75398670       1.86843789
H        1.72608359      -0.15595308       1.94181413
H        2.62246016       1.69087372       1.17689463
H        1.76678830      -2.21692535       0.36434416
H        2.11323653      -1.09424034      -0.98505650
H       -0.34085056      -0.92685502       0.90990872
H       -0.31800217      -1.76951153      -0.67270274
H        0.34319635       0.44030371      -1.78410808
H        0.05852709       1.26451474      -0.20766399
H       -2.00582607       0.40626098      -2.17929711
H       -2.29356154       0.70173288       0.86385455
H       -4.39423095      -0.18225921      -1.06417825
H       -4.64442233       0.73219029       0.46076946
H       -4.17356437       1.70672750      -2.15440176
