60
Properties=species:S:1:pos:R:3 090036=T pbc="F F F"
C        7.29802258       0.81182963      -1.45251845
C        7.69651000      -0.10546143      -0.27350135
C        9.16102487       0.19761360       0.10812887
C        7.61836106      -1.58576521      -0.70607984
N        6.85350067       0.13511771       0.92478252
C        5.40033418       0.03695097       0.70222762
C        4.66289561       0.00235834       2.05469567
O        4.89811752       1.17441106       2.79577669
C        3.15508751      -0.23101839       1.87916350
O        2.57875503       0.80415835       1.08477424
C        1.22412697       0.87167474       0.72933917
C        0.27900915      -0.07421225       1.16881847
C       -1.06045121       0.03502404       0.78240708
C       -1.47432430       1.07962811      -0.06321419
N       -2.84839425       1.22613985      -0.46226745
C       -3.73951399       0.12836592      -0.71315251
O       -3.29697496      -1.05105896      -0.78004880
N       -5.13327125       0.38451785      -0.93533833
C       -6.10269663      -0.69505200      -1.15542194
C       -6.37729555      -1.42645091       0.18238446
C       -7.77275226      -2.05796568       0.21004841
C       -8.88260694      -0.99659599       0.06046872
C       -8.44862548       0.23894697      -0.76546062
O       -9.55895057       0.80416967      -1.41080235
C       -7.39486965      -0.14292378      -1.81311904
C       -0.53368663       2.03336896      -0.47767750
C        0.80449743       1.92502570      -0.08957898
H        6.29985358       0.53872000      -1.85584648
H        8.02901987       0.71847486      -2.28451773
H        7.27136010       1.87335526      -1.12615812
H        9.47596369      -0.43572239       0.96575791
H        9.27690815       1.26261389       0.40298374
H        9.84686067       0.00095093      -0.74422100
H        6.64193801      -1.82861031      -1.17201960
H        7.77058182      -2.25230072       0.17005753
H        8.39969726      -1.81601181      -1.46178741
H        7.04860498       1.09952475       1.28483276
H        5.14692839      -0.89262233       0.15413675
H        5.04163421       0.90644821       0.10778347
H        5.06473984      -0.85373072       2.63948149
H        4.58577850       1.94408262       2.25210071
H        2.67302874      -0.24498297       2.88055623
H        2.98897259      -1.21504481       1.38860383
H        0.56658513      -0.89092026       1.81656513
H       -1.77253431      -0.68285404       1.16664236
H       -3.19789568       2.18885827      -0.67078073
H       -5.45953887       1.37736609      -0.92745375
H       -5.66455748      -1.42296505      -1.87493513
H       -6.29754009      -0.71262099       1.03268050
H       -5.61220900      -2.21780618       0.33789021
H       -7.84975954      -2.79624875      -0.61863588
H       -7.91312537      -2.61004055       1.16450563
H       -9.76479357      -1.47935541      -0.41576339
H       -9.20055005      -0.65322479       1.06917119
H       -7.99464583       0.99542057      -0.08301447
H      -10.10475513       1.24213978      -0.70628454
H       -7.16048274       0.73499326      -2.45432454
H       -7.82532072      -0.92075350      -2.48272555
H       -0.83696650       2.85659591      -1.11226003
H        1.52039045       2.66347434      -0.42785517
