36
Properties=species:S:1:pos:R:3 091180=T pbc="F F F"
C       -2.60293142      -2.32326757      -3.05072082
C       -1.36750350      -2.64081048      -2.21631678
O       -1.34816645      -1.85460186      -1.02663112
C       -1.00733789      -0.49548050      -1.00258952
O       -0.65107060       0.07993438      -2.06670037
N       -1.05786980       0.23015774       0.24511664
C       -1.49284196      -0.50125496       1.44044320
C       -0.65932252       1.65252589       0.35892928
C       -1.57243396       2.54659587      -0.49200448
C        0.84141495       1.85509413       0.00969841
O        1.25176303       3.18128471       0.24261343
C        1.73052091       0.88645896       0.76907862
C        1.80933746       0.92486560       2.17456232
C        2.60750216       0.00689546       2.86353384
C        3.33176926      -0.95850282       2.16069876
C        3.25805404      -1.00917358       0.76695241
C        2.46141369      -0.09378528       0.07278051
H       -3.52037914      -2.49277353      -2.44834372
H       -2.63068333      -2.98384282      -3.94272731
H       -2.58056485      -1.26687322      -3.39045322
H       -0.44400970      -2.46776723      -2.81067039
H       -1.39675179      -3.71325920      -1.93029756
H       -2.52457035      -0.88374469       1.29049365
H       -0.80789144      -1.35591964       1.62520593
H       -1.49126298       0.13915784       2.34678926
H       -0.80381828       1.99331632       1.40760708
H       -1.39670100       3.61484453      -0.24335807
H       -1.38613679       2.41018943      -1.57649299
H       -2.63661570       2.31188397      -0.27721340
H        0.97051295       1.68050430      -1.07879912
H        1.03307910       3.41501290       1.18169239
H        1.24699201       1.65594719       2.74042030
H        2.66137447       0.04183484       3.94397392
H        3.94780468      -1.66919716       2.69627360
H        3.81636975      -1.76052681       0.22359959
H        2.41095498      -0.15572274      -1.00714428
