43
Properties=species:S:1:pos:R:3 091598=T pbc="F F F"
C        2.80807398       0.87835150      -1.13123353
C        2.04861649       0.79843446       0.21887998
C        2.19971077       2.18070173       0.90292144
C        2.73212540      -0.24625481       1.14238718
C        2.48334603      -1.69066946       0.70283089
C        0.98236948      -2.00382371       0.65365722
C        0.17181835      -1.04776281      -0.27240499
C        0.47583169      -1.40309997      -1.76486575
C       -1.36123112      -1.28892970       0.01133606
C       -2.28705774      -0.05109164      -0.16926743
C       -1.69935471       0.94434937      -1.17909131
C       -0.30520268       1.46013473      -0.76930114
C        0.51477579       0.44552932       0.08303498
O       -3.53918302      -0.49099295      -0.65685449
C       -4.49450784      -0.00675708       0.23148041
C       -3.75345619       0.39575351       1.46612246
O       -2.43602563       0.60701331       1.07454807
H        2.42042601       1.69079250      -1.77733727
H        3.88146235       1.10404718      -0.95110106
H        2.77801019      -0.06364954      -1.69981640
H        1.64958401       2.21270537       1.86810282
H        1.81271492       2.99481872       0.25427868
H        3.26912902       2.40119463       1.11291325
H        2.35278582      -0.13348008       2.18324558
H        3.82980557      -0.06899017       1.18159431
H        2.95999265      -2.37051032       1.44206525
H        2.97597794      -1.89375430      -0.26840438
H        0.60364671      -1.93696053       1.69808500
H        0.84163967      -3.05762452       0.32633343
H        0.39054141      -0.52966027      -2.43881323
H       -0.20416859      -2.18941997      -2.15261535
H        1.48747520      -1.82509972      -1.90609570
H       -1.74260918      -2.12964736      -0.60791919
H       -1.51261969      -1.64794022       1.05331114
H       -2.38799828       1.81140153      -1.28519345
H       -1.65010329       0.46182237      -2.17854490
H        0.23050525       1.74178573      -1.69592863
H       -0.44123544       2.39295738      -0.17971661
H        0.12275020       0.56980883       1.11969432
H       -5.24294667      -0.79665253       0.45473376
H       -5.00415942       0.87122074      -0.22205119
H       -3.78507638      -0.41673287       2.22466876
H       -4.17617906       1.32668162       1.90033100
