68
Properties=species:S:1:pos:R:3 092577=T pbc="F F F"
C       -7.19792428      -0.50542603       2.93384932
C       -6.38988726       0.01676798       1.78605063
C       -6.30253148      -0.66632740       0.63621993
C       -5.45978476      -0.17612807      -0.51230152
N       -4.21049975      -0.96036572      -0.62776782
C       -3.52194663      -0.68959861      -1.91958904
C       -2.39094431       0.33572153      -1.77592366
C       -1.27913049      -0.21282964      -0.84339477
N       -0.37968453       0.86183651      -0.34248331
C       -0.82761757       2.21947522      -0.16261776
C       -1.64126973       2.57698724       0.92386219
C       -2.06215192       3.90173285       1.08218965
C       -1.66165056       4.87904694       0.16614055
C       -0.84143215       4.53240672      -0.90982830
C       -0.42079280       3.20893992      -1.07198648
C        1.02451268       0.60173988      -0.13258678
C        1.63578362       0.98689883       1.07200498
C        2.99193298       0.73408085       1.29196629
C        3.76201845       0.09017678       0.30996660
C        5.19497310      -0.18600780       0.54811524
O        5.86781877       0.61949731       1.24655281
N        5.82804386      -1.37034358       0.01947258
C        7.22382883      -1.28890004      -0.43373420
C        7.29852807      -0.59681685      -1.79119516
C        5.20415067      -2.68720217       0.22991615
C        5.06326200      -3.46274832      -1.07940450
C        3.16414926      -0.25563961      -0.91067477
C        1.80834101      -0.00039159      -1.13196857
C       -1.87141043      -1.12472046       0.28225682
C       -1.03854947      -1.17839355       1.57130172
C       -3.34561058      -0.77565398       0.56977997
H       -8.26111163      -0.60934605       2.63286282
H       -6.80547937      -1.49427236       3.25478552
H       -7.13274948       0.19927052       3.78841243
H       -5.86241364       0.95900987       1.90280621
H       -6.80483060      -1.62499121       0.53695048
H       -6.07701137      -0.30648015      -1.42805273
H       -5.23635985       0.91174520      -0.41819258
H       -4.22872570      -0.33933275      -2.70422213
H       -3.09782317      -1.64337825      -2.30149793
H       -1.95925331       0.56198759      -2.77585061
H       -2.84233777       1.27048246      -1.38085625
H       -0.68063305      -0.89613985      -1.48404022
H       -1.93601760       1.84251286       1.65694798
H       -2.69440619       4.17294516       1.91885841
H       -1.98660197       5.90400727       0.29073527
H       -0.52633529       5.29109201      -1.61543911
H        0.21554343       2.94855140      -1.90797925
H        1.05411394       1.46706935       1.84921802
H        3.43588316       1.02499253       2.23636033
H        7.67399560      -2.30132158      -0.52019115
H        7.83488019      -0.72932848       0.30643400
H        6.70542061      -1.16222227      -2.54048521
H        6.90132866       0.43736051      -1.71682937
H        8.35396667      -0.55054826      -2.13151583
H        5.82178452      -3.27726892       0.94093258
H        4.19565079      -2.57765545       0.68442089
H        6.05644961      -3.65797229      -1.53423821
H        4.43564945      -2.90141858      -1.79965618
H        4.57723405      -4.44126847      -0.87628728
H        3.75288796      -0.69308170      -1.70622959
H        1.38332057      -0.24829384      -2.09473617
H       -1.87723898      -2.16933065      -0.10787548
H       -0.99377014      -0.19133499       2.07060512
H       -0.00802121      -1.52258152       1.34382702
H       -1.48463342      -1.90625505       2.28212942
H       -3.72112801      -1.44278226       1.37728434
H       -3.40575208       0.26776307       0.94641564
