43
Properties=species:S:1:pos:R:3 092774=T pbc="F F F"
O       -3.14518786      -2.57519317       0.59579116
S       -2.67055778      -1.15153911       0.68846026
O       -2.30501074      -0.85467472       2.11600631
C       -1.25486258      -0.90065290      -0.37681022
C       -0.20522007      -2.01005747      -0.23898372
C        0.46515062      -2.00165546       1.14744328
C        1.92266833      -2.44847205       1.15840991
C        1.57624270      -0.98602060       1.39577120
O        1.86000874      -0.16361523       0.28264124
C        2.59726940       0.97026575       0.69943081
C        2.67183575       1.99499418      -0.44506669
C        3.54995398       1.47546662      -1.58376607
C        4.89339899       1.00187999      -1.03359515
C        4.66541793       0.02227367       0.12152186
O        3.89756430       0.61422617       1.15622271
C       -3.95827979      -0.06402883       0.18150473
C       -3.99775728       1.25187058       0.66505203
C       -5.01072354       2.12242523       0.25051631
C       -5.98436424       1.68464403      -0.65200919
C       -5.94416325       0.37652011      -1.14338259
C       -4.93228567      -0.49627926      -0.73065259
H       -0.80293059       0.08926136      -0.15483459
H       -1.61382516      -0.88110065      -1.42769935
H       -0.68407911      -2.99943982      -0.39729267
H        0.54191503      -1.88341251      -1.05305192
H       -0.10843020      -2.32710221       2.04065625
H        2.38388005      -2.66131178       0.17011709
H        2.23368839      -2.98423204       2.07970771
H        1.64947820      -0.60648989       2.44122224
H        2.06346157       1.48539039       1.53199252
H        3.09989551       2.94565984      -0.05736718
H        1.65042772       2.20864531      -0.82844467
H        3.71414043       2.28343126      -2.32878889
H        3.03758868       0.63129890      -2.09604148
H        5.47260800       0.50297419      -1.84009186
H        5.47803783       1.87490780      -0.66916216
H        4.19369514      -0.91487714      -0.24791854
H        5.65357064      -0.26165303       0.54038415
H       -3.24450835       1.60398450       1.35837028
H       -5.03952505       3.13680235       0.62689819
H       -6.76736506       2.35946682      -0.97288533
H       -6.69549064       0.03969588      -1.84589231
H       -4.90733098      -1.50427706      -1.12438308
