46
Properties=species:S:1:pos:R:3 092645=T pbc="F F F"
C        0.03017213      -3.91667316       0.42372400
O        0.50136379      -2.57729334       0.49943809
C       -0.14920327      -1.59033299       1.24691133
O       -1.18577352      -1.86735643       1.91069847
C        0.36084711      -0.17743746       1.21685708
O        1.78533090      -0.19966491       1.10757422
C        2.60537485       0.90122127       1.38555051
O        2.10568690       1.96322601       1.84954395
C        4.06055670       0.81156711       1.13755823
C        4.61674124      -0.36255158       0.59744300
C        5.99192177      -0.44892082       0.35886279
C        6.82439623       0.63262298       0.65557280
C        6.28338407       1.80353860       1.19136137
C        4.90886708       1.89574885       1.43188028
C       -0.26418032       0.62044655       0.05246744
O       -1.68733338       0.60966390       0.17754125
C       -2.53761136       1.43326078      -0.57106691
O       -2.05463738       2.27407380      -1.37905630
C       -4.00284000       1.31264099      -0.41098225
C       -4.87711896       2.13689964      -1.14439102
C       -6.26146361       2.01455238      -0.98860829
C       -6.78664442       1.07122983      -0.10252611
C       -5.92850251       0.24784765       0.62988107
C       -4.54335431       0.36572307       0.47830675
C        0.14736429       0.05760327      -1.28169872
O        1.18356356       0.49603707      -1.85226407
O       -0.59721325      -0.97754683      -1.85580731
C       -0.23087087      -1.59590766      -3.08249292
H        0.01517711      -4.37262552       1.43624678
H       -0.99097019      -3.93512742      -0.01279809
H        0.70923285      -4.50515442      -0.22663311
H        0.07863543       0.30908565       2.17778504
H        3.99121470      -1.21333638       0.35768411
H        6.41227728      -1.35551669      -0.05701977
H        7.88847614       0.56351910       0.46999739
H        6.92951122       2.64114870       1.42052966
H        4.51176048       2.81347364       1.84735870
H        0.08863830       1.67311490       0.12386834
H       -4.49267086       2.87489258      -1.83728058
H       -6.92754511       2.65187312      -1.55582440
H       -7.85840663       0.97813667       0.01635561
H       -6.33672854      -0.48316205       1.31586455
H       -3.89815822      -0.28433050       1.05600649
H       -0.22040795      -0.84359206      -3.89935708
H       -0.97146550      -2.38435193      -3.32797689
H        0.77260606      -2.06226598      -2.98708549
