23
Properties=species:S:1:pos:R:3 093882=T pbc="F F F"
C       -3.60437499      -0.03956859       0.24951435
C       -2.32378426       0.32816891       0.34483109
C       -1.20422609      -0.67582248       0.16186874
O       -1.24660758      -1.27058718      -1.11489850
C        0.18395453      -0.05441702       0.46019169
C        1.31540671      -1.07741805       0.42225990
C        2.58391755      -0.27999325       0.13347604
C        2.14258330       1.09063656      -0.38062245
C        0.62603588       1.04293433      -0.50523750
H       -3.87467842      -1.06833462       0.03118494
H       -4.39221265       0.69311714       0.39105230
H       -2.09503534       1.36515984       0.57326017
H       -1.36584977      -1.48232942       0.91063192
H       -1.42310048      -0.56135598      -1.78634522
H        0.15841348       0.38107785       1.48636009
H        1.15587147      -1.81415884      -0.39576245
H        1.39335672      -1.62352713       1.38769750
H        3.20629034      -0.80278728      -0.62548025
H        3.18118544      -0.16220857       1.06434023
H        2.61292543       1.32185409      -1.36128670
H        2.43284215       1.87738388       0.35041745
H        0.36506260       0.78908371      -1.55406268
H        0.17202397       2.02309212      -0.24339064
