48
Properties=species:S:1:pos:R:3 093311=T pbc="F F F"
C       -2.10112802      -3.32995605       0.01094731
C       -2.45229599      -2.13355970       0.50104415
C       -2.62617634      -0.88671769      -0.36865645
C       -3.74996976      -1.16901027      -1.39321925
C       -3.08551890       0.30488533       0.54864317
C       -1.98094988       0.84067704       1.49565899
C       -0.75207962       1.19366474       0.65641730
C       -0.25065145      -0.07130274      -0.06457691
C        1.09855619       0.36777206      -0.48746461
C        1.55039960       1.35898495       0.33485523
N        2.89755792       1.36294577       0.44077974
C        3.29639583       0.33417279      -0.33834094
C        4.59079749      -0.16812185      -0.46454151
C        4.76793578      -1.36135840      -1.18949746
C        3.65617360      -2.04172669      -1.73529962
C        2.35574988      -1.53207997      -1.57029933
C        2.21623197      -0.32324018      -0.89322008
C        0.51746555       1.81758797       1.32294687
C        0.45376881       3.35178302       1.37737326
C        0.80608761       1.23351801       2.71949603
C       -1.27879614      -0.54333597      -1.11436366
N       -1.50478524       0.47716613      -2.14324506
C       -0.62993236       0.75910267      -3.02367282
S        0.48262365       1.11378001      -4.13319561
H       -1.92149459      -3.48136428      -1.04778892
H       -1.99515392      -4.17774699       0.67987145
H       -2.62484173      -2.06588205       1.57165532
H       -3.43901106      -1.94818881      -2.12113446
H       -4.00944058      -0.25346289      -1.96641618
H       -4.67060545      -1.51712033      -0.87617199
H       -3.96245453      -0.00183997       1.16061171
H       -3.42806271       1.15031221      -0.08894782
H       -2.34975231       1.75020808       2.01639588
H       -1.73112225       0.07739337       2.26298490
H       -1.09616147       1.92710752      -0.11198596
H       -0.09502369      -0.88908436       0.67581496
H        3.48097195       1.91899829       1.10476232
H        5.43190500       0.33153296      -0.00165810
H        5.76123084      -1.77403389      -1.30870735
H        3.80446438      -2.97052855      -2.27050699
H        1.49648616      -2.06130829      -1.96016086
H       -0.39468757       3.67589566       2.01690064
H        1.39564351       3.76342497       1.79956487
H        0.31392580       3.77991762       0.36115512
H        1.77590072       1.61431995       3.10535662
H        0.85838122       0.12439112       2.68617201
H        0.00982289       1.52972086       3.43486609
H       -0.88838079      -1.45829314      -1.61120200
