72
Properties=species:S:1:pos:R:3 094623=T pbc="F F F"
C      -10.29420489       0.35585437       1.18650418
C       -9.14895419       1.21563049       0.75365114
C       -8.01193762       0.66933130       0.31016737
C       -6.90003068       1.52262368      -0.15593518
C       -5.64012004       1.10874003      -0.36071642
C       -5.08774584      -0.21463584       0.00336541
O       -5.68326483      -0.95573513       0.82873738
N       -3.82172258      -0.62071773      -0.53548542
C       -3.09631384      -1.79282860      -0.03850139
O       -3.43029730      -2.90743306      -0.82169402
C       -1.57287139      -1.55036688      -0.10329040
C       -0.81538979      -2.64181233       0.69652451
C        0.69850084      -2.55551900       0.55701762
C        1.52595528      -2.19641620       1.77266083
C        1.25914791      -2.81381933      -0.65376268
C        2.73777986      -2.76916019      -0.98209393
C        3.45658522      -4.04043043      -0.46380427
C        4.87266397      -3.71148038       0.01682129
C        5.51091144      -2.69153696      -0.93016473
C        4.64662942      -1.39726212      -1.00021443
C        5.35505758      -0.27314632      -0.22098722
C        4.57630785       1.01224443      -0.16464358
C        4.44388070       1.82314974      -1.23003266
C        3.84521244       3.18285675      -1.17618923
O        3.52144364       3.72315555      -2.26842256
C        3.71558275       3.98995036       0.10004529
C        2.36751070       4.68362700       0.23224135
C        2.31294707       6.18463758       0.17749835
C        1.21348425       4.01377555       0.43842238
C        1.10404990       2.54923022       0.36097379
C       -0.06444995       1.91251444       0.46418187
C       -0.17893974       0.51246953       0.04093757
O        0.71821666       0.01384129      -0.69523042
O       -1.29177887      -0.24593599       0.41979160
O        3.33626719      -1.58672515      -0.47045617
H       -9.97445165      -0.29740426       2.02624456
H      -11.13955724       0.99164422       1.52668300
H      -10.63864186      -0.27455827       0.34134059
H       -9.23979685       2.29043614       0.84873752
H       -7.93820067      -0.40857564       0.24920718
H       -7.12679006       2.55503279      -0.38760151
H       -4.94246018       1.81788076      -0.78867417
H       -3.43508387      -0.08584351      -1.34570167
H       -3.37663922      -1.97983823       1.02663473
H       -4.35133277      -3.17382254      -0.56737299
H       -1.27285879      -1.58717880      -1.17875745
H       -1.11310834      -2.57066053       1.76208584
H       -1.13798302      -3.64992073       0.35985845
H        0.88413221      -2.04761196       2.66619558
H        2.23762421      -3.01863588       2.00692774
H        2.08235790      -1.24908339       1.60537323
H        0.59579281      -3.05141651      -1.48106207
H        2.81000480      -2.76085080      -2.09461857
H        2.89362091      -4.53066942       0.36016673
H        3.51839828      -4.78068947      -1.29176034
H        4.82091623      -3.28360150       1.03478105
H        5.47529540      -4.63735396       0.06604385
H        6.55320379      -2.48173449      -0.60654165
H        5.57727834      -3.13774223      -1.94498146
H        4.56660738      -1.07523134      -2.06133792
H        6.35285332      -0.07262497      -0.67526720
H        5.53128018      -0.61979679       0.82085510
H        4.19095645       1.28860920       0.81044150
H        4.80881264       1.48274697      -2.19259212
H        4.53929695       4.73700870       0.09044951
H        3.88295736       3.38563798       1.01067613
H        3.31367798       6.63526196       0.01724458
H        1.66287646       6.50026900      -0.66868682
H        1.89871250       6.58374059       1.12917766
H        0.29496743       4.57886266       0.58343593
H        1.97119135       1.96809208       0.10329032
H       -0.95602345       2.45095151       0.75118794
