62
Properties=species:S:1:pos:R:3 094670=T pbc="F F F"
C       -0.35259524      -3.46562876       2.75366203
O        0.79813478      -3.37124367       1.91942607
C        1.15320167      -2.24617831       1.15404923
C        0.36947859      -1.08214891       1.18489583
C        0.67618549       0.02622952       0.38713383
C       -0.21208808       1.25917990       0.46771722
C        0.52760885       2.39256792       1.19663036
C       -0.37491160       3.58608141       1.39671276
C       -1.19899894       3.75091151       2.45631700
C       -1.23058441       2.77659853       3.60807444
C       -2.08870559       4.96460922       2.53116133
O       -0.55838714       1.69030308      -0.84168174
C       -1.93669019       1.52386223      -1.11908144
C       -2.25417194       0.06472976      -1.48759853
C       -3.75925618      -0.17691396      -1.73859219
C       -4.24648254       0.51607366      -3.02026333
C       -4.04163072      -1.68278984      -1.82264355
C        1.81037766      -0.01974013      -0.44863587
O        2.05619700       1.04760152      -1.31962694
C        1.81982181       0.93879136      -2.72092710
C        2.68053167      -1.13884385      -0.40816931
C        2.31949347      -2.28216812       0.35016201
C        3.18727781      -3.50138030       0.27430696
N        2.89230974      -4.56724993       0.95744832
O        3.65550461      -5.71242281       0.91564152
C        4.37991860      -3.49197411      -0.60157991
C        4.75654430      -2.39096619      -1.24572919
C        3.99770793      -1.13052268      -1.11342877
N        4.51093220      -0.01259329      -1.53362766
O        5.73930173       0.05395129      -2.15170514
H       -1.27475698      -3.32899137       2.15004307
H       -0.30358143      -2.70406618       3.56033586
H       -0.37998924      -4.47206870       3.21903481
H       -0.50292510      -1.03916964       1.82215914
H       -1.10470028       1.01216167       1.08984019
H        0.93110619       2.03360455       2.16738701
H        1.39878034       2.71926203       0.58964503
H       -0.37093718       4.33194167       0.60614995
H       -1.97191784       3.09366793       4.37194590
H       -1.51724698       1.76540623       3.25502863
H       -0.23547282       2.73331770       4.09797161
H       -3.14089789       4.64428422       2.68264047
H       -2.04417114       5.57687013       1.60493452
H       -1.77753498       5.59812166       3.38799976
H       -2.58029739       1.88371493      -0.28345429
H       -2.17011331       2.17073702      -1.98872911
H       -1.66502419      -0.22585017      -2.38499924
H       -1.92871635      -0.58801001      -0.65004420
H       -4.33866847       0.22631838      -0.87842110
H       -5.30849058       0.25625336      -3.21771019
H       -3.63508907       0.20249227      -3.89352414
H       -4.19277653       1.61895648      -2.91538955
H       -3.73927613      -2.18461960      -0.87859792
H       -5.12761838      -1.86380440      -1.97170317
H       -3.48174449      -2.13946556      -2.66718552
H        2.42185759       0.11720381      -3.16041413
H        2.09896763       1.89306290      -3.21221031
H        0.74582997       0.73637860      -2.91266634
H        3.38753024      -6.51912964       1.46477423
H        4.97967375      -4.38635649      -0.71640159
H        5.65198909      -2.42704450      -1.85384184
H        6.10018660       0.94609466      -2.46464579
