53
Properties=species:S:1:pos:R:3 095105=T pbc="F F F"
C        0.46959770      -2.56812482       2.51997169
C        0.52264645      -2.18055581       1.03707333
C        1.36410583      -0.90251146       0.80181276
N        0.63154275       0.32626746       1.20315468
C       -0.46173048       0.72586581       0.33102804
O       -0.62574633       0.14901727      -0.78108964
O       -1.34418248       1.74497588       0.70559089
C       -2.36688001       2.25577642      -0.14644822
C       -1.75957019       3.17307607      -1.21433317
C       -2.82777023       3.79213697      -2.12291734
S       -3.62931282       2.53644930      -3.18854068
C       -2.38620009       2.58956904      -4.52456271
C       -2.75887851       1.61895976      -5.59828084
O       -3.77445757       1.78452167      -6.25523248
C        1.07141259       1.22192881       2.32673390
C        1.47186614       2.60354021       1.76317404
C       -0.06755908       1.39455809       3.36218493
C        2.30037633       0.67359651       3.09760267
C        1.05931555      -3.33488912       0.20971374
C        0.24773564      -3.93880307      -0.76839846
C        0.73549458      -5.00028687      -1.53663782
C        2.03604302      -5.46934536      -1.33888464
C        2.85239728      -4.87750374      -0.37258223
C        2.37007751      -3.81589569       0.39861524
H       -0.10681508      -3.50970368       2.64637251
H        1.48918804      -2.71690098       2.93404272
H       -0.04112682      -1.77856616       3.10445102
H       -0.52491549      -1.97659582       0.72589961
H        2.34215070      -1.01818519       1.29831161
H        1.62313518      -0.82306362      -0.27762087
H       -3.07722833       2.84069605       0.47562250
H       -2.92782478       1.41588932      -0.61045562
H       -1.02355051       2.61019562      -1.82441853
H       -1.21149381       3.99437169      -0.70359165
H       -2.36834308       4.58823650      -2.74663889
H       -3.60968391       4.27655703      -1.50024723
H       -2.33522354       3.61098222      -4.95769631
H       -1.38862261       2.31687660      -4.12340537
H       -2.11833286       0.76814354      -5.80678777
H        0.61147056       3.13094203       1.30527821
H        2.25705618       2.48527955       0.98578840
H        1.86905152       3.25899673       2.56852058
H       -0.88529150       2.04246799       2.99458300
H        0.30631734       1.88096206       4.28912086
H       -0.49699883       0.41141759       3.63940189
H        2.55925490       1.33552593       3.95258345
H        2.09313217      -0.33413157       3.51368129
H        3.20163111       0.63894891       2.44856269
H       -0.76297032      -3.58958461      -0.93859218
H        0.10409143      -5.45946783      -2.28623577
H        2.41141758      -6.29116614      -1.93486291
H        3.86048945      -5.24127990      -0.22099500
H        3.01971174      -3.37016720       1.14058007
