32
Properties=species:S:1:pos:R:3 096574=T pbc="F F F"
C        3.81959342       0.40551996       1.07087812
C        2.51827439       0.11691553       0.31514798
C        1.62387022       1.37295533       0.27617605
C        0.31856280       1.09875189      -0.48854343
C       -0.48585487      -0.05904316       0.15873680
C       -1.87945214      -0.31183756      -0.53853524
C       -2.69043630      -1.38369969       0.22900037
C       -1.72466614      -0.77218431      -2.01200282
C       -2.69523871       0.97316040      -0.47772919
O       -3.03333369       1.58396253      -1.52900198
O       -3.05889136       1.49979035       0.75970085
C        0.43994284      -1.26226245       0.28703862
O        0.13066952      -2.37258337      -0.11500928
C        1.77135721      -1.06552421       0.95822968
H        4.46962120      -0.49538175       1.07033989
H        4.37316304       1.23217491       0.57662084
H        3.60741857       0.69459278       2.12274685
H        2.78615246      -0.16005571      -0.72969611
H        1.38388450       1.70471806       1.31088146
H        2.16692806       2.20028358      -0.23089566
H        0.57381919       0.85325867      -1.54118749
H       -0.28007670       2.03411179      -0.49062673
H       -0.70659799       0.25817001       1.20348709
H       -2.27637444      -2.40194060       0.08989348
H       -2.71147541      -1.16110159       1.31770955
H       -3.74043206      -1.41347838      -0.13679286
H       -1.22972758       0.00424284      -2.63076810
H       -1.13727061      -1.70737521      -2.09608135
H       -2.72315058      -0.96788901      -2.46018563
H       -3.59316374       2.35801505       0.82309420
H        2.38561062      -1.98878879       0.86890886
H        1.59727427      -0.86747790       2.03846518
