48
Properties=species:S:1:pos:R:3 096689=T pbc="F F F"
O       -4.87371137       0.67281716      -0.65267645
C       -3.78903402       0.34709694      -1.20862902
N       -2.87119724       1.37079476      -1.62676936
C       -2.95864723       2.74891639      -1.12387848
C       -2.54246384       2.83059150       0.36071993
C       -1.18709271       2.21981324       0.62828914
C       -1.07646889       0.86071178       0.95858112
C        0.17818211       0.28067486       1.15725257
C        1.34707711       1.05146843       1.02349694
O        2.62369597       0.50152570       1.21662953
C        2.98489929      -0.82609051       0.94542941
O        2.25294721      -1.55024654       0.21580661
C        4.26120914      -1.35841460       1.47113433
C        5.09986701      -0.54556043       2.25579111
C        6.30621128      -1.04708894       2.75464714
C        6.68737195      -2.36175656       2.47709146
C        5.86278242      -3.17827929       1.69992079
C        4.65536548      -2.68219648       1.19826693
C        1.23493723       2.41888642       0.72839915
Cl       2.67256062       3.41836041       0.58281065
C       -0.02334942       2.99700481       0.52689143
C       -2.14693537       3.69434154      -1.97234153
O       -1.00615476       3.36415474      -2.39627676
O       -2.64314890       4.96440901      -2.24950910
C       -3.48255392      -1.08807929      -1.42287106
C       -2.15454980      -1.53352690      -1.57255803
C       -1.87988505      -2.89234343      -1.75426888
C       -2.92242071      -3.82075154      -1.78536792
C       -4.24243135      -3.39298668      -1.62887736
C       -4.52311740      -2.03566569      -1.44413571
H       -2.12924222       1.12220142      -2.31868864
H       -4.01709891       3.08289687      -1.19902365
H       -3.30750252       2.31349583       0.98003424
H       -2.54966251       3.89294335       0.69098177
H       -1.96291392       0.24820907       1.06413801
H        0.22903062      -0.76202134       1.43922394
H        4.82578767       0.47666618       2.48455807
H        6.94606013      -0.41536855       3.35722165
H        7.62145887      -2.74775903       2.86434558
H        6.15908367      -4.19707912       1.48579312
H        4.03213497      -3.33390252       0.59872422
H       -0.09383732       4.04998490       0.28273531
H       -2.10667672       5.62264723      -2.80185323
H       -1.32350807      -0.84280834      -1.52523968
H       -0.85617551      -3.22633982      -1.86449534
H       -2.70702349      -4.87213119      -1.92568644
H       -5.04956651      -4.11386678      -1.64934502
H       -5.55429310      -1.72634899      -1.32642252
