38
Properties=species:S:1:pos:R:3 096226=T pbc="F F F"
O       -3.94491549       1.63821523      -1.80042557
C       -3.00363303       1.38565355      -0.80473789
C       -3.25096079       1.75942099       0.51708453
C       -2.29263013       1.51624528       1.49674113
C       -1.08872609       0.88804705       1.16766706
C       -0.81696974       0.46914647      -0.15710121
C        0.50414720      -0.23497963      -0.59074320
C        0.16106794      -1.56277317      -1.33828261
C       -0.44119137      -2.61000125      -0.38875625
C        0.54063113      -2.95755996       0.73624763
C        0.97089229      -1.70615315       1.51174679
C        1.51204272      -0.62058508       0.55147172
C        2.13569323       0.60389062       1.27275210
N        1.76446642       1.86693673       0.61788290
C        2.06690575       1.82843701      -0.81897757
C        1.28088575       0.71444604      -1.55375512
C       -1.80045298       0.75565731      -1.13705180
H       -4.82601252       2.09401743      -1.59343700
H       -4.17931823       2.24837469       0.78366343
H       -2.47937413       1.82257572       2.51816634
H       -0.38754518       0.76010545       1.96846214
H        1.08134164      -1.99671765      -1.79006545
H       -0.53465666      -1.39862410      -2.18508147
H       -1.39369165      -2.23374077       0.04375497
H       -0.67283915      -3.53232127      -0.96379180
H        0.05927398      -3.67544175       1.43480985
H        1.43757153      -3.45429972       0.30488693
H        0.11215026      -1.34849430       2.10999070
H        1.77126838      -1.99272299       2.22831084
H        2.37911645      -1.10657409       0.04258382
H        1.81613610       0.64250559       2.33585997
H        3.24548458       0.50400390       1.29241489
H        2.33236369       2.63358124       1.04865186
H        1.80413001       2.81174791      -1.26615959
H        3.16095439       1.68269398      -0.97014069
H        0.60012876       1.17415825      -2.30129797
H        2.01578018       0.12605151      -2.14725988
H       -1.63951525       0.50507691      -2.17608456
