60
Properties=species:S:1:pos:R:3 097709=T pbc="F F F"
C        1.51940328      -4.69142109      -0.78878720
C        1.04436471      -3.64918501       0.16395974
O        0.73456670      -3.97681508       1.34124182
O        0.96200767      -2.31645141      -0.25683959
C        0.49326850      -1.25398232       0.57498384
C        1.55431210      -0.70241612       1.51426724
C        2.90621631      -0.74412549       1.39065819
C        3.63548422      -1.64302021       0.42437670
C        3.72073706       0.25516676       2.19880178
C        3.95981346       1.57917737       1.43760159
C        2.75262387       1.98605877       0.61679350
C        2.65352132       1.78838896      -0.71773269
C        3.86126554       1.48487925      -1.57442218
C        1.29115636       1.78405944      -1.37440652
C        0.73029857       0.34640392      -1.49120861
C       -0.14328616      -0.09874088      -0.26897392
C       -1.63378218      -0.40232042      -0.65175114
C       -1.78574448      -1.59353656      -1.61949264
C       -2.34286000       0.87221539      -1.19496995
C       -3.87980325       0.78286236      -1.24128442
C       -4.48986287       0.52238899       0.11566393
C       -4.77361723       1.47656668       1.02976398
C       -5.35847779       1.04941319       2.35129541
C       -4.54924530       2.94538013       0.75609027
H        1.72605365      -4.23671757      -1.78048140
H        0.74145503      -5.47433853      -0.90525613
H        2.45163111      -5.15275166      -0.40160606
H       -0.30550563      -1.65486640       1.23761459
H        1.14688475      -0.04192970       2.27625432
H        4.72320893      -1.42205757       0.42638520
H        3.27424098      -1.49967076      -0.61154991
H        3.51295906      -2.70097689       0.73005924
H        4.70201589      -0.19000469       2.47040177
H        3.21083375       0.47608969       3.16267093
H        4.16787964       2.38230268       2.17514126
H        4.87367455       1.48517364       0.81763426
H        1.85538839       2.23647824       1.17673412
H        4.58482053       2.32435914      -1.51138973
H        4.35338036       0.54909954      -1.24639504
H        3.57514947       1.35708012      -2.63931443
H        1.39273567       2.21103654      -2.39601048
H        0.58150983       2.45648174      -0.84469750
H        1.55876168      -0.36560015      -1.67827644
H        0.13649934       0.31264636      -2.42513527
H       -0.21692970       0.76381840       0.43143393
H       -2.14939486      -0.68764617       0.29078632
H       -2.85592661      -1.84666652      -1.75790160
H       -1.31014408      -2.50350317      -1.20721899
H       -1.34965635      -1.37428966      -2.61445294
H       -2.06355237       1.74483482      -0.56946432
H       -1.98712769       1.09424734      -2.22309710
H       -4.29018735       1.71733014      -1.67816549
H       -4.18730342      -0.02833129      -1.93240408
H       -4.70605218      -0.51536965       0.35824263
H       -5.55141251       1.91613651       3.01649556
H       -6.31988242       0.52006475       2.18288225
H       -4.65317844       0.36528747       2.86857145
H       -3.47448549       3.14709309       0.57560407
H       -4.86770794       3.57078372       1.61646064
H       -5.14299595       3.26342982      -0.12618478
