81
Properties=species:S:1:pos:R:3 098959=T pbc="F F F"
C        4.83358946       3.86885186      -0.91512163
C        4.49635211       5.03853960       0.01005678
C        3.31039027       4.73951196       0.93983064
C        1.96916038       4.70594193       0.19177607
C        0.80298671       4.48464131       1.16625182
C       -0.57618568       4.58818098       0.48556336
C       -0.83012959       3.53619918      -0.60523455
C       -0.69744344       2.16998289      -0.08597730
C       -0.57051730       1.05052121       0.34123383
C       -0.40587968      -0.31473664       0.85784557
C        1.01068751      -0.81732237       0.55369772
C        1.25177637      -2.20770393       1.16437983
C        2.71249325      -2.66539413       1.03429635
C        3.11339528      -2.95390721      -0.42385733
C        4.45011084      -3.70601094      -0.53095357
C        5.65702887      -2.81743712      -0.18292272
C        6.99047584      -3.57998110      -0.24825659
C        7.39981107      -3.94319031      -1.67647178
O       -1.36451784      -1.17129665       0.23962378
C       -2.72133324      -1.18024868       0.58431236
O       -3.11890160      -0.54714478       1.60379991
C       -3.69859768      -2.04374049      -0.20875625
C       -3.26615890      -2.07537168      -1.68747387
O       -3.61587103      -3.40007648       0.23958431
C       -3.74695202      -3.54912280       1.64399828
C       -5.15840047      -1.51358766      -0.16640321
C       -6.20299276      -2.46114770      -0.04675745
C       -7.53454794      -2.07285378       0.05991818
C       -7.88062725      -0.73059009       0.01085185
C       -6.89856167       0.24269775      -0.19724422
C       -7.28357411       1.58929819      -0.30228209
C       -6.33535783       2.57429096      -0.56373235
C       -4.99955260       2.22608288      -0.73700329
C       -4.59569861       0.89362128      -0.62796614
C       -5.52685323      -0.13158463      -0.32506885
H        4.99899669       2.94198856      -0.32609821
H        4.01979096       3.69931964      -1.64954781
H        5.76290077       4.10016759      -1.47701890
H        5.38795827       5.25230775       0.63787228
H        4.28866502       5.94664330      -0.59619310
H        3.27041237       5.53987104       1.71136466
H        3.47711082       3.77221730       1.46448467
H        1.82151254       5.66699774      -0.34903332
H        1.98802921       3.87723022      -0.54569614
H        0.91080695       3.49481696       1.66136480
H        0.84490363       5.25951507       1.96313146
H       -1.36321116       4.49103740       1.26609039
H       -0.68557692       5.59991097       0.03697692
H       -1.86078600       3.66490707      -0.99646579
H       -0.13126303       3.67656180      -1.45525973
H       -0.55586968      -0.29947044       1.95999253
H        1.15306666      -0.86134585      -0.54832803
H        1.75040146      -0.10078207       0.97613738
H        0.58094673      -2.95483218       0.68651582
H        1.00047403      -2.17514599       2.24759318
H        2.83292556      -3.59244873       1.63657851
H        3.37852926      -1.89050992       1.47108379
H        2.32917682      -3.58447851      -0.89902742
H        3.17715471      -2.00385207      -0.99839329
H        4.54969713      -4.05942338      -1.57871629
H        4.43178842      -4.60209751       0.12768655
H        5.54427742      -2.43549134       0.85350358
H        5.69115045      -1.93953268      -0.86568706
H        6.93435267      -4.50266656       0.37067937
H        7.78357351      -2.93300735       0.18516074
H        6.71951629      -4.71245074      -2.09755106
H        7.38965810      -3.04121145      -2.32593990
H        8.42918897      -4.36180995      -1.66977752
H       -3.22167821      -1.06467060      -2.13793475
H       -3.98068226      -2.68443782      -2.28228436
H       -2.26414416      -2.54548653      -1.78876937
H       -2.76006556      -3.41302215       2.13438399
H       -4.48917977      -2.85279171       2.09096723
H       -4.08852967      -4.58138335       1.85733314
H       -5.99777756      -3.52287396      -0.02129052
H       -8.30570153      -2.82255817       0.18148094
H       -8.92548902      -0.45452853       0.10202570
H       -8.32322801       1.87890507      -0.19356976
H       -6.63945327       3.60948595      -0.64841261
H       -4.27150754       2.99391475      -0.96259318
H       -3.55242555       0.70059854      -0.80435696
