60
Properties=species:S:1:pos:R:3 098435=T pbc="F F F"
C       -9.56026805       1.18805509       1.19824471
O       -8.87358346       0.22678519       0.40284296
C       -7.52041186       0.31701533       0.04409313
C       -6.96831709      -0.70900740      -0.72970792
C       -5.62441374      -0.66831093      -1.11107930
C       -4.80449480       0.40492521      -0.72265013
C       -3.34466799       0.44082922      -1.14438963
C       -2.40355266       0.49293592       0.07626500
N       -0.99032419       0.34164899      -0.34146261
C       -0.05396852       0.76689529       0.72678305
C        1.02259287      -0.31001033       0.96971839
O        1.76449796       0.00141938       2.12283581
C        1.95828227      -0.50004685      -0.23829330
N        2.96683926      -1.52002711       0.05118346
C        4.32154221      -1.19219427       0.41591677
N        4.61934341       0.08838308       0.76862534
C        5.86516033       0.45704457       1.15634262
S        6.19162865       2.15640029       1.60809544
C        6.62638583       2.64281490      -0.09032680
N        6.86033721      -0.46105698       1.20908112
C        6.63753630      -1.75431704       0.86372222
C        7.69072404      -2.67416538       0.91714557
C        7.48147589      -4.00176132       0.54114515
C        6.22258291      -4.41474028       0.10204230
C        5.16076156      -3.50675444       0.04562082
C        5.34975797      -2.16569108       0.44118784
C       -0.69325547       0.96362908      -1.65983416
C       -1.69943871       2.06424851      -2.03068598
N       -3.08162658       1.55196146      -2.08850173
C       -5.36207675       1.44015237       0.05027441
C       -6.70590592       1.39677716       0.43289508
H      -10.61210892       0.86308623       1.33189050
H       -9.08303544       1.26759780       2.19778727
H       -9.55473596       2.17668121       0.69233089
H       -7.58475099      -1.54487952      -1.03576456
H       -5.22561545      -1.47823531      -1.70882337
H       -3.11252868      -0.50649534      -1.68099869
H       -2.55160621       1.46020871       0.60814582
H       -2.66009447      -0.33276384       0.77550685
H       -0.58620064       0.90547938       1.69602900
H        0.41750017       1.75002085       0.50077885
H        0.50171237      -1.27479631       1.15667041
H        2.20037572       0.88080083       1.96923994
H        2.43781638       0.46419380      -0.51409970
H        1.36842044      -0.84136709      -1.11477190
H        2.62296326      -2.50172182       0.12692127
H        7.50075788       2.05612160      -0.44271991
H        5.76332966       2.47379413      -0.76793652
H        6.88772449       3.72089132      -0.10310777
H        8.67419309      -2.36012445       1.24467364
H        8.29883123      -4.70989560       0.58114426
H        6.06971688      -5.44238135      -0.20162778
H        4.21407503      -3.86861951      -0.32492158
H       -0.73730088       0.17073727      -2.43734311
H        0.33538175       1.38365502      -1.70747859
H       -1.62495028       2.88837165      -1.28530312
H       -1.43129879       2.48219214      -3.02414038
H       -3.72096375       2.35973236      -1.90235118
H       -4.75904124       2.28547080       0.35555539
H       -7.10170952       2.20840743       1.02758447
