63
Properties=species:S:1:pos:R:3 098566=T pbc="F F F"
C        9.03776862       1.08240247       2.07060114
C        8.50392024      -0.10048320       1.26529949
C        8.58329443      -1.38865612       2.08938839
O        7.15071040       0.16603101       0.89600518
C        6.47057664      -0.52541138      -0.11525826
O        7.06920511      -1.40561037      -0.79348373
N        5.08869400      -0.22296783      -0.37938551
C        4.36783995       0.68570299       0.52415243
C        2.85048639       0.55763361       0.34902766
C        2.41112828       0.75260612      -1.11938361
O        1.13831271       0.13737499      -1.32744852
C       -0.06359727       0.64901630      -0.82538985
N       -0.10395564       1.82065906      -0.12411408
C       -1.28029294       2.30797245       0.37300790
N       -2.44561349       1.62859912       0.17157391
C       -2.41728768       0.47521285      -0.54314059
C       -1.25694340      -0.03491068      -1.03352536
C       -1.50102794      -1.33677070      -1.71269057
C       -3.03044995      -1.56366841      -1.50545237
C       -3.76200593      -1.74967766      -2.83706139
N       -3.52405250      -0.36732101      -0.80710747
C       -4.87249113      -0.15191725      -0.35377455
C       -5.58379562      -1.19236564       0.26525749
C       -6.89670333      -0.99137844       0.69963521
C       -7.52072677       0.24752183       0.51027481
S       -9.17060267       0.49487478       1.07238591
C       -9.15503591       0.83663797       2.81737666
O       -9.98438581      -0.74038633       0.80621101
O       -9.79584026       1.65122728       0.34329087
C       -6.81858407       1.28727132      -0.11291567
C       -5.50453454       1.08952239      -0.54914846
F       -4.86745853       2.09479759      -1.20019931
C        3.42205266       0.17531587      -2.13841865
C        4.38547418      -0.83817357      -1.51441813
H        8.43501378       1.22829894       2.99274682
H        8.98106641       2.00768013       1.45880362
H       10.09890382       0.91108210       2.35153618
H        9.13025609      -0.20756634       0.35153673
H        9.63296588      -1.58536117       2.39565857
H        7.94886805      -1.30649903       2.99782198
H        8.23100114      -2.25166778       1.48708325
H        4.68395337       1.73196524       0.32230684
H        4.61426803       0.44105708       1.58059861
H        2.53984909      -0.45242702       0.69697438
H        2.34405071       1.30500819       0.99652211
H        2.32038959       1.84372784      -1.32243292
H       -1.28623602       3.23338810       0.93210226
H       -0.91130956      -2.14067218      -1.22223862
H       -1.21909379      -1.25879962      -2.78530670
H       -3.18335056      -2.46233592      -0.86925608
H       -3.64837547      -0.84430766      -3.47119741
H       -3.34850953      -2.62747798      -3.37738764
H       -4.84301662      -1.92706498      -2.65549026
H       -5.11880807      -2.15530953       0.42843429
H       -7.42533407      -1.80104644       1.18681674
H      -10.19277122       1.00225802       3.17335420
H       -8.71214217      -0.02413582       3.35969027
H       -8.54888182       1.74548314       3.01187585
H       -7.28934513       2.24958312      -0.26841717
H        4.02631282       1.00876645      -2.56058298
H        2.88752394      -0.30029159      -2.98942392
H        3.82532284      -1.73205101      -1.16446370
H        5.10335024      -1.16196570      -2.29883729
