72
Properties=species:S:1:pos:R:3 098074=T pbc="F F F"
C        7.07792809      -2.97351855       1.64674981
O        5.93626205      -3.45482608       0.94547675
C        5.03714976      -2.63981596       0.23988366
C        3.93462962      -3.24414872      -0.37421228
C        3.01384113      -2.48108706      -1.10487875
C        3.18345775      -1.08651914      -1.19365416
C        4.28364694      -0.47284148      -0.57735780
N        4.47407519       0.94417167      -0.67580851
C        3.60492329       1.83095372       0.10504527
C        3.97714889       3.29414716      -0.11482692
N        5.44236184       3.41239253      -0.11674838
C        5.84093547       4.82546945      -0.01891832
C        6.02115047       2.80109148      -1.33358567
C        5.34573046       1.46875797      -1.73307966
C        5.20949092      -1.24781745       0.13016151
O        2.27339524      -0.30728893      -1.91643336
C        1.02854998      -0.81138861      -2.39765570
C       -0.04149724      -0.61713373      -1.35284525
O        0.11176842      -1.10891881      -0.20224339
N       -1.19636209       0.18347801      -1.64695084
C       -2.36723607       0.22770782      -0.81438356
C       -3.09143030       1.42309489      -0.70703043
C       -4.24308784       1.48609348       0.08156365
C       -4.69936289       0.34897098       0.77017247
N       -5.89876283       0.40947074       1.56879804
C       -7.07517707       1.14056791       1.08236607
C       -8.34218386       0.70123423       1.83720224
N       -8.33530699      -0.74811855       2.12712745
C       -8.46058188      -1.55375527       0.89996236
C       -7.17832682      -1.17918896       2.95684662
C       -5.97053692      -0.22626104       2.88725458
C       -3.99138620      -0.85760257       0.63560126
C       -2.83707020      -0.91964770      -0.15113642
C        1.16997815      -2.28286140      -2.82713933
C        1.81782649      -3.14991588      -1.73573031
H        6.76668423      -2.26471779       2.44266351
H        7.60040150      -3.83108210       2.11791339
H        7.77749009      -2.47534939       0.94219689
H        3.80042548      -4.31554557      -0.28499625
H        2.54205604       1.67213827      -0.17326736
H        3.72351607       1.58875729       1.18334983
H        3.54943577       3.65690341      -1.07754802
H        3.53207456       3.89615359       0.70886951
H        5.41009188       5.42435540      -0.85335645
H        6.94823000       4.91271066      -0.04449476
H        5.49774415       5.25232384       0.94916111
H        7.09940184       2.60811443      -1.14747928
H        5.95725342       3.49852950      -2.20049058
H        4.73187242       1.62785625      -2.64642734
H        6.13070533       0.72328246      -1.98964234
H        6.05569364      -0.75696088       0.59189964
H        0.75477562      -0.22384635      -3.30013678
H       -1.13338141       0.85811260      -2.44117524
H       -2.75502926       2.31201674      -1.22609794
H       -4.77191136       2.42635609       0.16065763
H       -6.92434575       2.23343653       1.21518468
H       -7.21448716       0.93684903      -0.00202822
H       -8.40952857       1.26158122       2.79593807
H       -9.24666207       0.97653397       1.25107481
H       -8.67240653      -2.61060518       1.16662474
H       -7.52447669      -1.52066986       0.29880891
H       -9.31017070      -1.19618602       0.27903087
H       -6.83818588      -2.20367928       2.67893209
H       -7.51344061      -1.24617383       4.01432866
H       -5.03681436      -0.77557634       3.13469587
H       -6.08811253       0.56855184       3.65598765
H       -4.35012829      -1.75955884       1.11494554
H       -2.33011098      -1.86947777      -0.26251531
H        1.81035475      -2.32337159      -3.73624399
H        0.17584350      -2.70072710      -3.09894022
H        2.12734548      -4.11574670      -2.19082509
H        1.07185548      -3.38023470      -0.94619094
