30
Properties=species:S:1:pos:R:3 100031=T pbc="F F F"
C       -0.77876981      -2.57306480      -1.17171723
C       -0.29119214      -1.73357794      -0.25393936
C       -0.42507062      -0.23882286      -0.40301489
O        0.52059602       0.42839481       0.43669932
C        1.91274540       0.43827871       0.24940021
C        2.70141748       1.11232207       1.19047385
C        4.09209566       1.15361294       1.05305308
C        4.70805382       0.52009108      -0.03013106
Br       6.60785685       0.57647596      -0.21728821
C        3.93091043      -0.15457532      -0.97637192
C        2.53957023      -0.19728992      -0.84156905
C       -1.81986089       0.18513832      -0.01245586
C       -2.21728170       0.17636460       1.33739796
C       -3.51780473       0.54664796       1.69294221
C       -4.43410515       0.92050322       0.70669631
C       -4.05264825       0.92136825      -0.63745998
C       -2.75309714       0.55204943      -0.99829085
H       -1.27765179      -2.19926051      -2.06079762
H       -0.68018747      -3.64482450      -1.03424488
H        0.18990736      -2.13951702       0.63137726
H       -0.22801546       0.05528934      -1.45855318
H        2.23318958       1.60561504       2.03287072
H        4.68918070       1.67762168       1.78828094
H        4.40400774      -0.64606496      -1.81684740
H        1.96584884      -0.72608353      -1.58934667
H       -1.52073562      -0.11963114       2.11212095
H       -3.81616598       0.54071451       2.73333618
H       -5.44079063       1.20572395       0.98362396
H       -4.76525630       1.20575278      -1.40088275
H       -2.47674645       0.55074783      -2.04536205
