35
Properties=species:S:1:pos:R:3 100103=T pbc="F F F"
O       -3.85183826       0.63441776       2.00170371
C       -3.22564650       0.14099672       1.02524825
C       -3.95859804      -0.61606143      -0.03660377
C       -3.33337441      -0.28522874      -1.39826582
C       -1.79439650      -0.51703700      -1.45640039
O       -1.52375215      -1.69568254      -2.17194654
C       -1.13133161      -0.61481240      -0.05547888
C        0.35054703      -0.35314815      -0.11535422
N        1.23946011      -0.99815981      -0.90785547
C        2.44970739      -0.54067970      -0.53287108
C        3.69151478      -0.92957264      -1.03319356
C        4.84106595      -0.35332302      -0.46122165
C        4.72624860       0.58058652       0.59314773
C        3.46075820       0.94965667       1.08491056
C        2.34090229       0.37173290       0.48936390
C        0.99564226       0.50290447       0.75385579
C        0.30689008       1.23087724       1.85563506
C       -1.14890514       1.49825701       1.45196832
N       -1.80219960       0.28921867       0.90741674
H       -5.03301574      -0.33095723      -0.04152491
H       -3.87915068      -1.70599564       0.16364965
H       -3.84716069      -0.87965607      -2.18499694
H       -3.54202015       0.78461444      -1.62345269
H       -1.34219135       0.35241341      -1.99207499
H       -1.63364766      -1.48058210      -3.13515482
H       -1.25370736      -1.65492530       0.32129981
H        1.03925562      -1.72848237      -1.62645386
H        3.77077349      -1.65529010      -1.83222421
H        5.82039665      -0.63258125      -0.82739385
H        5.61814684       1.01183486       1.02868158
H        3.36402282       1.65765047       1.89770694
H        0.33159004       0.60440788       2.77276532
H        0.82222721       2.19346049       2.06027308
H       -1.69314214       1.87205660       2.34576105
H       -1.17507141       2.29708938       0.67908017
