50
Properties=species:S:1:pos:R:3 102761=T pbc="F F F"
C       -5.98809356      -0.81891171       1.12073621
C       -5.22623708       0.26893077       0.42191312
O       -5.82358408       1.33399534       0.06475866
O       -3.84855177       0.14237124       0.19932435
C       -3.08801647       1.18328211      -0.41491908
C       -1.59359871       0.83095060      -0.45792938
C       -1.29513537      -0.34261129      -1.40891477
C       -0.85772017      -1.58356423      -0.69014044
C       -1.49574057      -2.80409113      -0.87814069
N       -0.68408544      -3.82391781      -0.53233483
C        0.46380131      -3.26628312      -0.12339354
C        1.61605503      -3.95137952       0.24632919
C        2.73164665      -3.20336971       0.63144983
C        2.66944458      -1.79852961       0.67071703
C        1.50724908      -1.09266400       0.26656133
C        0.40522423      -1.88277683      -0.16269586
N        1.36751353       0.30124661       0.63860099
C        1.14879787       0.58469460       2.06678027
C        1.58165876       1.40375053      -0.33099787
C        2.91297228       2.19574947      -0.06060846
C        3.25117499       3.14298253      -1.23147030
C        4.12592956       1.28980813       0.19147195
C        0.39301921       2.35518487      -0.30272343
O        0.47247271       3.47797553       0.26571759
N       -0.84277524       1.99715016      -0.91572125
H       -6.96444770      -0.98119126       0.61687701
H       -6.15136191      -0.52133097       2.18636774
H       -5.40977043      -1.77037118       1.10709808
H       -3.21176428       2.11508704       0.17556379
H       -3.47304447       1.37116531      -1.43900231
H       -1.30158063       0.58729646       0.58325048
H       -2.19553270      -0.57039055      -2.02712411
H       -0.49984504      -0.08125186      -2.15041655
H       -2.46429988      -2.94047411      -1.34216677
H       -0.88825983      -4.84276436      -0.62861753
H        1.64971964      -5.03036721       0.23976687
H        3.63594031      -3.71077147       0.94699972
H        3.51315118      -1.28203791       1.08583811
H        0.22047219       0.06161290       2.41324389
H        1.03295430       1.67881120       2.25395250
H        2.01914965       0.21701807       2.66800209
H        1.64933651       0.97238264      -1.35994041
H        2.78241184       2.81278596       0.86463264
H        4.05373976       3.85013557      -0.92272482
H        3.61303575       2.55552281      -2.10444276
H        2.37064579       3.73806737      -1.54599550
H        4.02687287       0.81379375       1.19163879
H        4.22303137       0.52594549      -0.62027978
H        5.06709793       1.89269416       0.23776758
H       -1.20107358       2.59865863      -1.70465933
