66
Properties=species:S:1:pos:R:3 102393=T pbc="F F F"
C        6.01269643      -3.36754482       1.46215663
C        5.59530964      -3.10243276       0.02104801
N        4.72354904      -1.92825183      -0.04749473
C        3.36920592      -1.90328192       0.00011796
O        2.66144968      -2.94522700       0.06057150
N        2.85238397      -0.64600732      -0.02134553
C        1.42087121      -0.29124216      -0.01046807
C        1.06628603       0.52400887       1.25730913
C       -0.14067387       1.44378919       1.03431437
N       -1.08970607       0.79449028       0.11104282
C       -2.42074247       1.44236462       0.14219856
C       -3.30944627       0.81685070       1.24490685
C       -4.57772267       1.64455108       1.59790565
C       -5.47475043       2.09715038       0.42829398
C       -6.69128755       1.19165885       0.15994784
C       -6.39107409      -0.30374618      -0.03104510
C       -5.21386210      -0.58077767      -0.98673950
C       -3.98210148      -1.22172025      -0.32143097
C       -3.56240657      -0.70201948       1.07168950
C       -0.54144105       0.76753631      -1.26623237
C        0.97837144       0.42664737      -1.31595123
C        1.29612699      -0.40157413      -2.57841271
O        2.67399346      -0.40453444      -2.83063828
C        3.94772587       0.15267682      -0.06877600
C        4.03107354       1.54980428      -0.09619680
C        5.31007669       2.13306442      -0.13576087
C        6.46734366       1.32543078      -0.14420414
C        6.35900358      -0.07545009      -0.11389989
C        5.07721097      -0.62827518      -0.08032538
H        6.57225706      -2.49712740       1.86483155
H        5.11535834      -3.54743304       2.09123909
H        6.66639667      -4.26401023       1.50338060
H        5.06373364      -3.99329842      -0.37756556
H        6.49754535      -2.94363831      -0.60697028
H        0.82130671      -1.22893905       0.04431798
H        0.83250072      -0.18839796       2.07932245
H        1.91994206       1.13887990       1.60722030
H       -0.60807752       1.64974067       2.02068154
H        0.19928292       2.42076512       0.61953752
H       -2.32132310       2.53880517       0.31201023
H       -2.92851595       1.32221838      -0.83666330
H       -2.71299312       0.87482797       2.18163299
H       -5.18464133       1.10755849       2.35910488
H       -4.22358741       2.56911789       2.10729146
H       -5.88707200       3.09598711       0.69259070
H       -4.90076589       2.27887630      -0.49859230
H       -7.20292725       1.56831314      -0.75289501
H       -7.41214642       1.29848220       0.99999083
H       -6.26030414      -0.79079121       0.95468518
H       -7.30657459      -0.77047848      -0.45705284
H       -5.56413611      -1.28686870      -1.77162659
H       -4.91533628       0.32341721      -1.55182310
H       -4.18211542      -2.31057687      -0.21510418
H       -3.12167901      -1.13664759      -1.01816075
H       -4.27286720      -1.05570019       1.84712123
H       -2.61109394      -1.22459776       1.31836550
H       -0.69786544       1.75016238      -1.76894830
H       -1.11523905       0.00902809      -1.84307477
H        1.52453724       1.38878994      -1.40194900
H        0.77714691       0.04733707      -3.45526052
H        0.92922605      -1.44510028      -2.44953296
H        2.80950654      -0.98913730      -3.62095956
H        3.15529910       2.18070064      -0.07562483
H        5.40755224       3.21080954      -0.15473905
H        7.44539671       1.78768241      -0.17244879
H        7.24480942      -0.69669556      -0.11691360
