31
Properties=species:S:1:pos:R:3 103957=T pbc="F F F"
C       -5.57218930       0.89558502      -0.97070287
O       -4.32233396       1.53692841      -0.73758246
C       -3.10222819       0.86521749      -0.55591050
C       -3.01786655      -0.53799251      -0.59136376
C       -1.79451858      -1.17958355      -0.40803907
C       -0.63000274      -0.43481841      -0.18549644
C        0.59772400      -1.09009865      -0.00189022
C        1.77446841      -0.35814240       0.22310962
C        3.09301885      -1.08122989       0.41619330
C        4.08250803      -0.74594308      -0.70739829
C        3.66660816      -0.78605399       1.77622949
O        4.36056213       0.24841329       1.97345829
O        3.38602082      -1.64046520       2.83803057
C        1.70698771       1.04476432       0.25991659
C        0.49068841       1.70617500       0.07844897
C       -0.69405078       0.98037300      -0.14633967
C       -1.94011699       1.62526125      -0.33335873
Br      -2.10792742       3.54442209      -0.29375543
H       -6.36135571       1.66784842      -1.07624605
H       -5.83031147       0.23886010      -0.11323162
H       -5.52806717       0.30237559      -1.90842752
H       -3.89612004      -1.14561920      -0.76076886
H       -1.75944567      -2.26231516      -0.44042634
H        0.63749785      -2.17309844      -0.03424572
H        2.92384883      -2.18006755       0.36759648
H        3.64331531      -1.01664993      -1.69142825
H        4.33400338       0.33589176      -0.71615563
H        5.02001344      -1.32703332      -0.57339475
H        3.74644200      -1.45209175       3.76581018
H        2.59960579       1.63262631       0.43075520
H        0.49322145       2.78646100       0.11661350
