37
Properties=species:S:1:pos:R:3 104608=T pbc="F F F"
C        5.62406625       0.26915856      -0.96954808
O        4.22134084       0.45085678      -1.11909483
C        3.31018635       0.16281667      -0.09713241
O        3.72278792      -0.25191393       1.02190980
C        1.83128978       0.40230491      -0.31996906
O        1.59000097       0.64786597      -1.68789235
C        1.39715391       1.63422169       0.48849291
C       -0.07496490       1.97692753       0.23264924
C       -0.99473245       0.77211650       0.26580826
C       -2.38742231       0.98731632       0.30952148
O       -2.86965580       2.30651873       0.36749538
C       -4.24705265       2.66478094       0.41369586
C       -3.25904616      -0.11361252       0.29101734
C       -2.76051902      -1.41148526       0.22192850
C       -1.37679846      -1.64425735       0.16220754
O       -0.85253688      -2.94760549       0.11176700
C       -1.63524362      -4.13717469       0.11268043
C       -0.48782987      -0.54922517       0.15687239
C        1.00427184      -0.81446989       0.15610199
H        5.84848349      -0.79733213      -0.75573454
H        6.00383381       0.90608403      -0.14275905
H        6.13194635       0.56180458      -1.91128580
H        1.84067274      -0.16868048      -2.19542451
H        2.02225985       2.51200140       0.21122232
H        1.54233243       1.44656844       1.57638144
H       -0.16780908       2.46179970      -0.76344382
H       -0.39474644       2.71669802       0.99850927
H       -4.33250517       3.76995645       0.45341766
H       -4.76714194       2.30091594      -0.49749178
H       -4.72216476       2.23902960       1.32261959
H       -4.33103853       0.02273635       0.33007828
H       -3.46500477      -2.23182378       0.21839190
H       -0.95915512      -5.01534194       0.06776517
H       -2.23570969      -4.19862961       1.04478069
H       -2.30177648      -4.15649801      -0.77529002
H        1.29200127      -1.08955332       1.19461227
H        1.24022631      -1.68487554      -0.49486047
