31
Properties=species:S:1:pos:R:3 104127=T pbc="F F F"
C        1.19712873       2.64027307      -0.77734604
C        1.17356953       1.51665091       0.27333764
O        1.38134166       2.10936879       1.53332102
C       -0.17699787       0.91318420       0.22704391
C       -1.27492715       0.41624564       0.19061840
C       -2.58250222      -0.18179226       0.14795986
C       -3.69322494       0.58255193      -0.23505793
C       -4.96369196      -0.00151681      -0.27617720
C       -5.12706717      -1.34798925       0.06453139
C       -4.02005904      -2.11226462       0.44681770
C       -2.74828739      -1.53120349       0.48896546
C        2.23567963       0.43158245       0.03278296
C        2.16766280      -0.77869031       0.75960211
C        3.13438168      -1.77365491       0.59237595
C        4.19670697      -1.57686067      -0.28942730
F        5.13462419      -2.54286742      -0.44875871
C        4.29780669      -0.38097248      -1.00045049
C        3.33439330       0.61954143      -0.83850830
H        1.11180749       2.22492599      -1.80538103
H        0.35100971       3.34354937      -0.61339580
H        2.13159068       3.23508185      -0.69377129
H        1.27732365       1.40997514       2.23152164
H       -3.57683564       1.62639235      -0.50096260
H       -5.82107334       0.58912956      -0.57199436
H       -6.11055687      -1.79871905       0.03228941
H       -4.14748813      -3.15429942       0.71024792
H       -1.89667384      -2.13153076       0.78627248
H        1.36164122      -0.95574002       1.46077779
H        3.06020380      -2.69703947       1.15240202
H        5.12811359      -0.22452643      -1.67725904
H        3.46440025       1.53121468      -1.40237758
