52
Properties=species:S:1:pos:R:3 104659=T pbc="F F F"
O        0.66309451      -1.59248003       2.27012448
C        1.94407230      -1.27195557       1.79997490
C        1.90872901      -0.04399170       0.85706517
C        3.28710720       0.66461047       0.83875735
C        4.39419567      -0.19596017       0.27279689
C        4.64309999      -0.21699952      -1.11080514
C        5.65516629      -1.02767092      -1.63387439
C        6.42770610      -1.82127520      -0.78223119
C        6.19164271      -1.80311825       0.59466661
C        5.18081168      -0.99384126       1.12219698
N        1.51875372      -0.42512131      -0.51863358
C        0.10711204      -0.81827280      -0.68470754
C       -0.88296598       0.35744275      -0.53358853
N       -1.28863317       0.54317183       0.87175828
C       -2.36651807       1.53521174       1.10993655
C       -2.26942620       2.79442659       0.21542941
O       -3.18681768       3.77256118       0.62710855
C       -3.78508842       0.90160043       1.13466465
C       -4.20147733       0.24181456      -0.15591190
C       -4.78909665       0.99719295      -1.18492052
C       -5.16147098       0.38429133      -2.38514377
C       -4.95685963      -0.98622443      -2.56514846
C       -4.38373499      -1.74753217      -1.54325037
C       -4.01066816      -1.13924995      -0.34101153
H        0.43284675      -0.91311547       2.95666825
H        2.35775649      -2.14939226       1.25851929
H        2.60792346      -1.08065599       2.67370822
H        1.19617079       0.70317074       1.26526227
H        3.20815710       1.60074476       0.24318341
H        3.55172537       0.98784508       1.86982862
H        4.05828657       0.39620190      -1.78432976
H        5.84112210      -1.03977722      -2.70006110
H        7.21068747      -2.44819946      -1.18886252
H        6.79264603      -2.41598154       1.25395667
H        5.01418870      -0.98853622       2.19178345
H        1.70308788       0.37474568      -1.16883144
H       -0.15758415      -1.66882070      -0.02587110
H       -0.00310354      -1.21394411      -1.71776132
H       -1.76664442       0.15071252      -1.16873560
H       -0.40456154       1.28146082      -0.92044838
H       -1.57626690      -0.37683252       1.27914347
H       -2.20203911       1.90468962       2.14640086
H       -2.48356618       2.54092205      -0.84278011
H       -1.23604657       3.20841774       0.25979494
H       -2.81748337       4.18081142       1.45327628
H       -3.82886585       0.15642633       1.95943760
H       -4.53283438       1.67919021       1.40371453
H       -4.95857382       2.05906023      -1.05803485
H       -5.60965237       0.97207764      -3.17574564
H       -5.24485554      -1.45868411      -3.49532906
H       -4.22737277      -2.80932736      -1.68299462
H       -3.56388219      -1.74184033       0.43985473
