30
Properties=species:S:1:pos:R:3 106688=T pbc="F F F"
Cl      -4.79700909       1.81507284      -2.65615011
C       -3.50297316       1.05487086      -1.74826299
C       -2.28137640       0.77749496      -2.36952069
C       -1.24896180       0.17249977      -1.64702939
C       -1.42963199      -0.16126564      -0.29236048
C       -0.30695442      -0.80807051       0.49366920
N        0.06286729      -2.07391404      -0.17114097
C        1.21748405      -2.69991228       0.48057190
N        2.36987805      -1.81253265       0.39179301
C        2.19232152      -0.40364726       0.56496440
C        3.30443745       0.44031595       0.69024633
C        3.12492142       1.80831861       0.90768060
C        1.83647190       2.33693751       1.01101590
C        0.72286452       1.50271886       0.87879197
C        0.88950243       0.12898881       0.61620352
C       -2.66111521       0.12134781       0.32395948
C       -3.69151226       0.72643914      -0.40208827
H       -2.13027760       1.03095602      -3.41107544
H       -0.30665682      -0.03326559      -2.13975553
H       -0.65537372      -1.03302484       1.52810779
H       -0.74380550      -2.73659020      -0.08427297
H        0.99348664      -2.91236554       1.54988974
H        1.45276817      -3.66080771      -0.02560040
H        3.32233919      -2.21538032       0.24097287
H        4.30707052       0.03548434       0.63488067
H        3.98522743       2.45696380       1.01068556
H        1.70015177       3.39427480       1.19798882
H       -0.26662585       1.93070158       0.97665143
H       -2.82414937      -0.12295532       1.36615395
H       -4.63536916       0.94034622       0.08303011
