65
Properties=species:S:1:pos:R:3 106006=T pbc="F F F"
C       -6.12445700       5.21503278       1.50125765
C       -5.52283673       4.00546508       0.85032010
C       -5.54182805       3.86915017      -0.54649170
C       -5.01657552       2.72194042      -1.15013760
C       -4.45883835       1.70144313      -0.36721003
C       -3.92303352       0.49510086      -1.02929302
C       -2.69693284      -0.00363292      -0.80393207
C       -1.66231553       0.62753316       0.06575984
C       -0.32093850      -0.08882953      -0.27732887
C        0.69061329       0.82522894      -0.93526054
O        0.70086562       2.06189394      -0.68280915
O        1.69496603       0.26387855      -1.73433612
C        2.82739833       0.99572198      -2.19646864
C        3.72097558       1.35639938      -1.04022011
C        4.00385707       2.70088183      -0.74488976
C        4.81373304       3.02697618       0.34717227
C        5.34697910       2.01602400       1.15085565
C        5.07381740       0.67612684       0.86231620
C        4.26338193       0.34513432      -0.22941806
C        0.35181998      -0.64262979       0.96234458
O        0.23639948      -0.04710849       2.07030820
O        1.21091932      -1.74102551       0.84677398
C        1.93695487      -2.27126759       1.94817034
C        2.74109908      -3.45088486       1.48735378
C        2.09338976      -4.65164328       1.15378852
C        2.83320513      -5.74767590       0.69855659
C        4.22152726      -5.65127896       0.57031972
C        4.87221661      -4.45759762       0.89372722
C        4.13590497      -3.35840336       1.34698967
C       -0.69080677      -1.24957676      -1.23978688
C       -1.15429593      -0.88950695      -2.65505925
C       -2.17313504      -1.16570212      -1.56368171
C       -2.88987198      -2.51715081      -1.50090943
C       -4.48262509       1.81791584       1.03248833
C       -5.00978088       2.96291991       1.63637876
H       -7.19924225       5.02994075       1.70150420
H       -6.02666974       6.10345076       0.84338193
H       -5.61100974       5.43853672       2.46078368
H       -5.96346732       4.64924996      -1.16864689
H       -5.03528965       2.63500632      -2.22945557
H       -4.53227093       0.04469714      -1.80382356
H       -1.95720611       0.46751372       1.12131427
H       -1.62817220       1.72009728      -0.12722787
H        2.49012431       1.89753445      -2.75307733
H        3.39755545       0.35851609      -2.90394778
H        3.59646886       3.49590250      -1.35451743
H        5.02662917       4.06391147       0.57263585
H        5.97330140       2.27019603       1.99694430
H        5.49005904      -0.10442764       1.48701100
H        4.05334103      -0.69666685      -0.43822372
H        1.23094530      -2.59393665       2.74311571
H        2.59856340      -1.48352315       2.36929397
H        1.01743926      -4.73639458       1.24463572
H        2.33116776      -6.67128618       0.44295462
H        4.79215254      -6.50066985       0.21648959
H        5.94742873      -4.38290020       0.79250190
H        4.65472593      -2.44051891       1.59016374
H       -0.27362205      -2.27374748      -1.11798777
H       -1.03617060      -1.70773399      -3.39665584
H       -1.06434681       0.17894871      -2.94465975
H       -2.33721717      -3.29800080      -2.06750738
H       -3.90474276      -2.41973896      -1.93997515
H       -2.98574638      -2.84020644      -0.44236719
H       -4.12224776       1.01424699       1.66068379
H       -5.02423284       3.03114990       2.71701052
