34
Properties=species:S:1:pos:R:3 107278=T pbc="F F F"
C       -5.12996757       0.38052931      -1.04883967
C       -3.98035647       0.40010048      -0.03771004
C       -4.11348796       1.60170285       0.90179484
C       -2.63474816       0.46793493      -0.77752452
C       -2.05818013      -0.81309125      -1.19672017
N       -1.53458852      -0.13180541       0.01419608
C       -0.26078460       0.56511798      -0.24265822
C        0.90193606      -0.32257454       0.18416640
O        2.12950923       0.37383214      -0.01467901
C        3.39618578      -0.15515762       0.27331738
C        3.57309005      -1.45121779       0.79735254
C        4.85853822      -1.93164851       1.06726017
C        5.97538943      -1.12779384       0.81827410
Cl       7.58652447      -1.73280204       1.15762994
C        5.80568456       0.15905931       0.29832224
C        4.52163535       0.64167591       0.02766628
H       -5.04101861      -0.50805509      -1.70964134
H       -5.11618049       1.29711502      -1.67742022
H       -6.10500747       0.32195387      -0.51959626
H       -4.04421454      -0.52472801       0.58004475
H       -4.07598320       2.55423949       0.33016817
H       -3.28714268       1.59752001       1.64449216
H       -5.07607983       1.55165631       1.45421224
H       -2.37276970       1.36381101      -1.38603600
H       -2.63309443      -1.72750757      -0.93857871
H       -1.39778942      -0.77631103      -2.09078941
H       -0.11395721       0.86509666      -1.30710794
H       -0.23851653       1.49389445       0.36779504
H        0.89683308      -1.25188279      -0.42623023
H        0.79057867      -0.58381380       1.25930064
H        2.72659267      -2.09321100       0.99900716
H        4.98500559      -2.92867369       1.46979578
H        6.66670985       0.78571751       0.10359050
H        4.39965452       1.63931675      -0.37485467
