40
Properties=species:S:1:pos:R:3 107122=T pbc="F F F"
O       -1.25864417      -0.66058431       2.39107093
C       -1.59368862      -0.25293376       1.24515092
C       -0.88230889      -0.80376067       0.03094657
C        0.66301885      -0.91269915       0.21090538
C        1.37995950       0.38632358      -0.17089101
C        0.90143560       1.64316090       0.25472145
C        1.56560010       2.81905451      -0.10368653
C        2.73053484       2.76150442      -0.87003253
Cl       3.55941816       4.23993428      -1.32178678
C        3.24697202       1.52359844      -1.25679004
C        2.59618330       0.34140029      -0.88856444
O        3.17013764      -0.87994072      -1.24302816
C        2.73437606      -2.11423966      -0.68247880
C        3.31204576      -3.26421457      -1.52334102
F        4.68185430      -3.10713032      -1.63743900
F        2.75767217      -3.26170967      -2.79136378
F        3.06374817      -4.48376393      -0.91988408
C        1.19047681      -2.12424702      -0.61486139
N        0.71111995      -3.38029069      -0.02970153
O        0.03653027      -4.17424624      -0.71727588
O        1.03445161      -3.71637478       1.26516953
C       -2.70865795       0.71820797       1.12463546
C       -3.52182182       0.76192438      -0.02452526
C       -4.56711331       1.68626621      -0.11670229
C       -4.81628290       2.57084872       0.93475420
C       -4.02403422       2.52945715       2.08387072
C       -2.97832760       1.60659589       2.18208386
H       -1.08897237      -0.18165352      -0.86621862
H       -1.33253563      -1.79935964      -0.16671365
H        0.91001346      -1.10832661       1.27707061
H        0.01697781       1.72965942       0.86497265
H        1.17419309       3.77550613       0.21910371
H        4.16597181       1.47599445      -1.82750670
H        3.14393118      -2.19303046       0.34939454
H        0.80109366      -2.02882370      -1.65533417
H       -3.36961485       0.07069890      -0.84280753
H       -5.18859286       1.71242453      -1.00251799
H       -5.62615336       3.28508719       0.86098299
H       -4.21950290       3.21361972       2.89950031
H       -2.37146469       1.59606234       3.07911734
