32
Properties=species:S:1:pos:R:3 108190=T pbc="F F F"
C       -4.64400193       1.15266602       0.06779867
C       -3.14933294       1.07778689       0.15889391
C       -2.38018706       2.26410642       0.21099945
C       -0.97767395       2.20100619       0.25719921
C       -0.36890834       0.94530330       0.24335518
C       -1.10771053      -0.20068218       0.17271684
C       -2.49981801      -0.17349651       0.12383329
O       -0.30646083      -1.32472279       0.15291579
C        1.07999704      -0.97205070       0.24835191
C        1.64432870      -1.59736312       1.54048012
C        1.81310704      -1.38012108      -1.06999339
C        3.12722237      -2.15768580      -0.90291672
C        2.09073372      -0.08047029      -1.75169241
C        1.72306545       0.97219608      -1.04053195
C        1.08590965       0.59904020       0.25103407
O        1.78501389       1.18051448       1.32625679
H       -5.02400269       2.04664047       0.60661336
H       -5.10980802       0.25293746       0.52335808
H       -4.94587862       1.21647437      -0.99839588
H       -2.86651386       3.23165362       0.21298325
H       -0.38352500       3.10470672       0.29573912
H       -3.06113459      -1.09714804       0.05984757
H        2.69047489      -1.27416198       1.72239811
H        1.60515386      -2.70500782       1.47969386
H        1.02679458      -1.29270067       2.41183931
H        1.13389382      -1.97917612      -1.71585987
H        3.86146628      -1.57897639      -0.30275889
H        3.57464879      -2.35801746      -1.90013503
H        2.93899153      -3.13860063      -0.41945095
H        2.55549270       0.00183325      -2.72927715
H        1.85231551       1.99460576      -1.38157835
H        1.23634654       1.06891035       2.14628270
