56
Properties=species:S:1:pos:R:3 109752=T pbc="F F F"
C        8.56955212       0.81715622       1.25361499
O        7.97306831       0.35503184       2.44649112
C        6.66650305      -0.13518905       2.19149905
C        5.62790852       0.94404672       2.48993233
O        4.33357397       0.42507873       2.25501597
C        3.36976491       1.39985926       2.60113769
O        2.07983151       0.93971340       2.25751854
C        1.91394160       0.86580039       0.85002895
C        1.65704852      -0.58664178       0.43868201
C        0.16467899      -0.69221853       0.11435133
C       -0.14699999      -1.81813167      -0.85955563
O        0.68078388      -2.75331650      -1.05405034
C       -1.46278189      -1.87275951      -1.50630230
C       -2.19396483      -2.99130180      -1.59132532
C       -3.63412089      -2.86732466      -1.84391627
O       -4.31023332      -3.86200797      -2.23324768
O       -4.24179934      -1.63694329      -1.56976386
C       -5.57881444      -1.27047188      -1.88906601
C       -5.71506148      -1.06468842      -3.40573400
C       -5.94482861       0.01615174      -1.11222022
C       -4.80031447       1.06577444      -1.03010413
C       -4.06725893       1.09966357       0.33877881
C       -2.67100411       0.52153365       0.29581825
C       -1.66701226       1.16512979      -0.33679159
C       -0.20441267       0.71780066      -0.39028083
C        0.67069941       1.66157838       0.43676245
H        8.75952847      -0.03259246       0.55419680
H        9.55071734       1.28000302       1.50534055
H        7.94666893       1.59654697       0.75302150
H        6.48364762      -0.99212860       2.87816232
H        6.53099075      -0.53296391       1.15593472
H        5.73945108       1.25391711       3.55395209
H        5.82320968       1.81471457       1.82296099
H        3.38340334       1.56282300       3.70060128
H        3.57270800       2.38301275       2.11257696
H        2.78788946       1.25064351       0.26892125
H        1.93505962      -1.29759965       1.24639545
H        2.27171390      -0.81796428      -0.46033110
H       -0.35430321      -0.90010811       1.07392668
H       -1.90347958      -0.94151879      -1.83228056
H       -1.77669298      -3.95565981      -1.32854609
H       -6.27225927      -2.08071149      -1.57236510
H       -5.50991496      -2.01508830      -3.94144769
H       -4.99722093      -0.29412525      -3.76193823
H       -6.74643008      -0.73964109      -3.66587223
H       -6.83348996       0.48994878      -1.58980798
H       -6.28669721      -0.26750437      -0.09617389
H       -5.25734430       2.07072372      -1.18891304
H       -4.07771567       0.93739319      -1.86627509
H       -3.99274068       2.15553512       0.68340215
H       -4.64448345       0.56946506       1.12317992
H       -2.49205243      -0.40224815       0.83585890
H       -1.89989195       2.10162191      -0.84198810
H        0.12303023       0.79519123      -1.45467435
H        0.95016194       2.56048718      -0.16128116
H        0.11778872       2.00450340       1.34618975
