23
Properties=species:S:1:pos:R:3 109402=T pbc="F F F"
O       -3.21781878      -1.29671680       0.11571579
C       -2.12899844      -0.81482991      -0.15609475
C       -2.05929998       0.44905932      -0.99867588
C       -0.86524086       1.35553553      -0.62320926
C        0.39433015       0.50071919      -0.45584820
C        1.67858325       1.22903700      -0.07535949
C        2.41793976       0.16149050       0.66413211
O        3.59561579       0.25364583       0.97154553
C        1.57695454      -1.02958796       0.99122423
C        0.17981297      -0.51055475       0.67038454
C       -0.86666404      -1.54479911       0.25508837
H       -1.96947195       0.15070067      -2.06533148
H       -3.00046529       1.02990873      -0.88727789
H       -1.09017147       1.89905369       0.32098054
H       -0.70473772       2.10759707      -1.42545644
H        0.58519421      -0.04105243      -1.41356274
H        1.48193535       2.09015067       0.59936663
H        2.23649061       1.55407132      -0.97983273
H        1.86146380      -1.88397670       0.33973137
H        1.66498756      -1.30360808       2.06462760
H       -0.19622444       0.01961906       1.57885090
H       -1.07504873      -2.22437978       1.10990057
H       -0.49916629      -2.15108306      -0.60089931
