47
Properties=species:S:1:pos:R:3 109660=T pbc="F F F"
C        2.10447360       3.45952903      -2.68306889
O        2.78861843       2.39549319      -2.02885515
C        2.17015573       1.40293528      -1.24961548
C        0.77942601       1.37883987      -1.04689365
C        0.17024358       0.37048347      -0.27008697
C       -1.35437265       0.33100877       0.00672144
C       -2.07512071       1.28875349      -0.87458473
N       -2.63877912       2.03382989      -1.55832547
C       -1.86511278      -1.12991027      -0.29193783
C       -3.31478250      -1.26734492      -0.81773342
C       -3.77688377      -2.72867086      -0.83539915
O       -3.86952956      -3.24031387       0.46709415
C       -1.59135355       0.73182166       1.51537382
C       -3.05835676       0.62347053       1.97037745
C       -1.06363484       2.14463113       1.84513497
C        1.00695485      -0.59033839       0.33073512
C        2.40141248      -0.58475481       0.13940642
O        3.21375255      -1.56050064       0.73948457
C        2.74645076      -2.61989545       1.56907938
C        2.98498341       0.42264144      -0.66622115
O        4.36654119       0.51424490      -0.92545051
C        5.38036966      -0.36670136      -0.45441304
H        2.84269682       4.08589646      -3.22422523
H        1.58127285       4.09355503      -1.93650001
H        1.37818856       3.05244135      -3.41788509
H        0.18002191       2.15813085      -1.48981065
H       -1.21513150      -1.59921697      -1.06512081
H       -1.74872005      -1.75070291       0.62306011
H       -3.35986764      -0.88240181      -1.85974994
H       -4.02847012      -0.67229690      -0.21513594
H       -3.05517717      -3.34356217      -1.41440717
H       -4.76427865      -2.80161866      -1.34533887
H       -4.68216841      -2.83916266       0.87274397
H       -1.01920700       0.02694454       2.15841137
H       -3.38987230      -0.43480175       1.96993556
H       -3.72516565       1.23002251       1.32219006
H       -3.16670957       0.98578198       3.01503104
H       -1.19841072       2.36275145       2.92613479
H        0.02193865       2.22534285       1.63073795
H       -1.60588676       2.91878959       1.26219316
H        0.56160278      -1.34878071       0.95714116
H        2.04643269      -3.26930624       1.00212169
H        3.61198814      -3.23226040       1.89465738
H        2.24554087      -2.20740883       2.47025089
H        5.42516224      -0.34396714       0.65464048
H        6.36055598      -0.02632876      -0.84631406
H        5.19820802      -1.39709274      -0.82558372
