48
Properties=species:S:1:pos:R:3 109527=T pbc="F F F"
C       -2.40461213       2.79065090      -0.30311801
C       -2.97443162       1.39650126      -0.21415868
C       -4.31401249       1.24823488      -0.18323185
C       -5.01850131      -0.07339610      -0.06530490
O       -4.69666327      -0.67781610       1.15640770
C       -2.06096351       0.22345445      -0.12894691
C       -0.78771188       0.32223007       0.29176547
C        0.17719030      -0.87057627       0.39751564
C       -0.45654916      -1.83811368       1.43476472
C        0.30113815      -1.56038303      -1.02319871
C        0.81323978      -3.01701190      -1.03104188
C        1.10160581      -0.69464083      -2.01575662
C        2.47870586      -0.31312713      -1.46975009
C        2.36558859       0.49348421      -0.16825740
O        1.68731982       1.70103240      -0.45432109
C        2.49084550       2.73462162       0.02074463
C        3.65311225       2.09407757       0.71247770
O        3.67602614       0.77298590       0.28126220
C        1.57620795      -0.31456755       0.92341815
C        2.49208491      -1.35199126       1.62289651
H       -3.12847429       3.50212493      -0.75590680
H       -1.49628332       2.79469035      -0.94239432
H       -2.13965403       3.14946079       0.71346542
H       -4.94495682       2.12830333      -0.23873398
H       -4.73390123      -0.73180227      -0.91577751
H       -6.11656854       0.09822035      -0.11318399
H       -5.16061776      -1.55500463       1.15967495
H       -2.44998633      -0.74776302      -0.39695906
H       -0.44823376       1.29006702       0.63277091
H        0.15962141      -2.74328776       1.60083620
H       -0.58522621      -1.32625584       2.41324347
H       -1.45130216      -2.19725279       1.09744853
H       -0.71442253      -1.64810410      -1.46288517
H        1.83269766      -3.11553577      -0.62631650
H        0.12736731      -3.68367260      -0.46968557
H        0.83373183      -3.40247853      -2.07289741
H        0.52647339       0.22858804      -2.24763265
H        1.22979822      -1.23313588      -2.98012568
H        3.00369564       0.30258082      -2.23270584
H        3.09395136      -1.22378188      -1.31089900
H        1.91137922       3.37248572       0.72198674
H        2.83793522       3.34885537      -0.83796489
H        3.51900809       2.12022344       1.81631964
H        4.60589145       2.59763052       0.44306941
H        1.35113508       0.40787879       1.74165202
H        1.97970614      -1.85669735       2.46486856
H        3.35935619      -0.84035657       2.09052955
H        2.89825910      -2.10162987       0.92403638
