58
Properties=species:S:1:pos:R:3 109738=T pbc="F F F"
C        0.87154648       3.42264035       0.15440996
C        1.71982463       2.18735239      -0.17606046
C        1.41902261       1.68765330      -1.60640009
C        1.89932358       0.24553712      -1.78299230
C        1.09411755      -0.74495849      -0.88786582
C        1.79606072      -2.15204299      -0.68352642
C        2.32831263      -2.70083241      -2.04085179
C        0.71672734      -3.19030333      -0.24686631
C        2.95072344      -2.07463041       0.35257651
C        4.24534653      -1.62980013      -0.01816833
C        5.26763719      -1.50552999       0.92701427
C        5.03143192      -1.81900042       2.26253517
C        3.77136239      -2.26211814       2.65716871
C        2.74153418      -2.38557019       1.72009200
C        0.61339709      -0.06623970       0.44459175
O       -0.71182645       0.43752355       0.25710818
C       -1.57621128       0.77438098       1.30734064
O       -1.20950058       0.65316690       2.50699586
C       -2.96092940       1.26622029       0.99458998
O       -2.89918572       2.41233198       0.18210223
C       -3.79447042       0.15100075       0.33570120
C       -5.23102089       0.56761425       0.16713691
C       -5.62713067       1.33308714      -0.86120883
C       -7.06062899       1.75653766      -1.01547995
O       -7.40473341       2.68260472      -0.02059879
C        1.55570453       1.07320467       0.89106801
H        1.03989998       4.21471025      -0.60669614
H       -0.20898995       3.16614682       0.17187245
H        1.16089727       3.83250469       1.14652957
H        2.78650561       2.51076104      -0.15189514
H        0.32825230       1.73529421      -1.82557266
H        1.93669350       2.34209736      -2.34195906
H        2.97870771       0.21887593      -1.54314677
H        1.78193709      -0.03546640      -2.85318753
H        0.17032309      -0.95714616      -1.47650713
H        3.06555960      -2.03466158      -2.52896860
H        1.49685287      -2.82677059      -2.76911261
H        2.81556047      -3.69138488      -1.89438830
H        1.19054449      -4.17141057      -0.01363090
H        0.12994466      -2.86798990       0.63532252
H       -0.02819721      -3.35565557      -1.05681197
H        4.49031751      -1.37081764      -1.03515405
H        6.24799530      -1.16146044       0.62063358
H        5.82539095      -1.72032514       2.99131623
H        3.58687544      -2.50651821       3.69594766
H        1.78470322      -2.72090562       2.08844488
H        0.57943665      -0.80655416       1.26610045
H       -3.45492704       1.55236620       1.94942855
H       -2.49380971       2.14732422      -0.68513112
H       -3.77311323      -0.74994680       0.98808760
H       -3.35992975      -0.14005612      -0.64658713
H       -5.95982337       0.22586153       0.89929371
H       -4.90714313       1.64506926      -1.61380510
H       -7.73416850       0.87066263      -0.98568789
H       -7.18591427       2.24341168      -2.00548097
H       -7.59576524       2.16172987       0.80177034
H        1.20735887       1.49682382       1.85629035
H        2.55158982       0.63360043       1.10227288
