22
Properties=species:S:1:pos:R:3 110687=T pbc="F F F"
H       -2.98066131      -1.08662521       1.24199087
C       -2.69238596      -0.20145298       0.63549873
C       -3.28282938      -0.34513637      -0.76702794
Br      -3.01749956       1.26317466      -1.81876777
N       -1.23421722      -0.11272824       0.58592853
C       -0.43826425       1.07507445       0.57092453
O       -0.88746609       2.23457273       0.77155869
C        0.95191722       0.73870797       0.28428019
C        2.07964411       1.54963520       0.17015477
C        3.30822100       0.93320164      -0.12785625
C        3.38282980      -0.46561263      -0.30598765
C        2.22961065      -1.26207627      -0.18789545
C        1.02483440      -0.62805104       0.11032671
C       -0.31866557      -1.16873960       0.28499919
O       -0.64314816      -2.38108649       0.17850821
H       -3.11283120       0.69945287       1.13177891
H       -4.37476084      -0.52965312      -0.68655844
H       -2.82078099      -1.20684432      -1.29333154
H        2.01308015       2.62125741       0.30568405
H        4.20227623       1.53560259      -0.22252688
H        4.33368978      -0.92822419      -0.53629287
H        2.27740719      -2.33444904      -0.32538861
