42
Properties=species:S:1:pos:R:3 110776=T pbc="F F F"
C       -4.47019444      -2.44015655      -2.30304865
C       -4.56649346      -1.02473200      -1.74600049
O       -3.30106713      -0.59298287      -1.25120594
C       -2.75694175      -1.03071603      -0.03728927
O       -3.41218302      -1.79744298       0.72066263
C       -1.38598834      -0.56993302       0.37308402
N       -0.38902960      -0.96400553      -0.63249269
C        1.03718372      -0.85031506      -0.44743248
C        1.89007533      -1.16917805      -1.51625961
C        3.27646208      -1.06449161      -1.38232267
C        3.83760446      -0.63744820      -0.17210366
C        5.22944994      -0.52650582      -0.02768782
C        5.77684589      -0.09865850       1.18517758
C        4.94231037       0.22055415       2.25950273
C        3.55475049       0.11391007       2.12834410
C        2.99175238      -0.31472794       0.91543950
C        1.60001932      -0.42489609       0.77270533
C       -1.39458521       0.93107858       0.56801071
C       -1.51050112       1.47063206       1.86127628
C       -1.53588256       2.85578206       2.04971291
C       -1.45713933       3.71427662       0.95043610
C       -1.35727006       3.18932683      -0.34026406
C       -1.33102865       1.80513451      -0.53411679
H       -4.20292016      -3.15591697      -1.49794153
H       -3.69667167      -2.48185246      -3.09884627
H       -5.44838339      -2.73863976      -2.73530602
H       -4.87829840      -0.34045496      -2.56290874
H       -5.33407794      -0.97608756      -0.94326827
H       -1.13312336      -1.07890728       1.33002169
H       -0.72941969      -1.30551350      -1.56128845
H        1.47762664      -1.49837875      -2.46179152
H        3.90898678      -1.31600658      -2.22541759
H        5.89158957      -0.76966307      -0.85018179
H        6.85054431      -0.01418384       1.29267818
H        5.37187013       0.55151807       3.19623153
H        2.92360257       0.36619507       2.97221840
H        0.96783278      -0.17721980       1.61404312
H       -1.57769805       0.81954771       2.72399541
H       -1.61898741       3.26376088       3.04876241
H       -1.47780457       4.78622949       1.09847149
H       -1.30261257       3.85535713      -1.19164846
H       -1.26020488       1.41571157      -1.54195138
