48
Properties=species:S:1:pos:R:3 110881=T pbc="F F F"
C       -3.18616398      -2.40413659      -2.24674490
O       -2.25826370      -1.99026589      -1.25229936
C       -0.94323465      -2.46595775      -1.19994144
O       -0.54196408      -3.31705298      -2.04083771
C        0.02045871      -1.92717695      -0.16776464
C       -0.54902170      -2.01922265       1.22802971
O       -1.77371163      -1.79960785       1.44227411
O        0.30638065      -2.31978318       2.29191591
C       -0.13658653      -2.36600493       3.64233491
C        0.51731550      -0.49429475      -0.54352499
C       -0.64536450       0.48811016      -0.67175420
C       -1.12618461       0.84212485      -1.96235332
C       -2.21128339       1.72399718      -2.10951927
C       -2.79338078       2.23556042      -0.95584090
C       -2.34460772       1.90790030       0.28057571
C       -1.27539043       1.03913601       0.47216551
O       -3.10454927       2.55817120       1.23349556
C       -4.09296676       3.34302835       0.55188167
O       -3.85851827       3.10804830      -0.84362267
C        1.65472381       0.05566068       0.38236229
C        2.05128306       1.50451172      -0.01937747
C        3.40728870       1.90603735       0.57825580
C        4.56001079       1.01480261       0.06393807
C        4.10997783      -0.38381449      -0.39972649
C        2.88864604      -0.83200358       0.35278894
O        2.92334694      -1.86835998       0.99862013
H       -3.34646212      -3.50125930      -2.18452661
H       -4.15349459      -1.88801300      -2.07858149
H       -2.80598156      -2.13527047      -3.25502139
H        0.89627421      -2.60846069      -0.19424788
H       -0.53892570      -1.37549540       3.94340434
H       -0.92227365      -3.14224050       3.75860582
H        0.72092216      -2.62027508       4.29836935
H        0.98482104      -0.59338512      -1.55069897
H       -0.66723344       0.42738473      -2.85088697
H       -2.58377059       1.99384654      -3.08883460
H       -0.94638349       0.80469592       1.47509754
H       -3.95660338       4.41934261       0.78735002
H       -5.11198299       3.00273580       0.83171515
H        1.29781914       0.09187100       1.43439377
H        2.10690103       1.59936250      -1.12681243
H        1.28217159       2.22019213       0.34225004
H        3.34624963       1.82741599       1.68626872
H        3.62169598       2.96822500       0.33069796
H        5.06572757       1.52234249      -0.78631491
H        5.31334680       0.90669974       0.87460699
H        4.94227883      -1.10990361      -0.27067184
H        3.85666352      -0.34921884      -1.48149357
