25
Properties=species:S:1:pos:R:3 111949=T pbc="F F F"
C        4.42030904       1.34705076       0.27214485
O        3.04320616       1.02775708       0.42938141
C        2.47839341      -0.14291711      -0.08526329
O        3.18834879      -0.97231486      -0.71912828
C        1.01712318      -0.40777764       0.12192963
C        0.81868493      -1.69035200       0.93168781
S        0.19523130      -0.53391255      -1.51021614
C       -1.44816748      -0.12851913      -0.91020407
C       -1.84051491       1.21124673      -0.79259971
C       -3.12388615       1.52775021      -0.33553846
C       -4.01986542       0.50691452      -0.00257934
C       -3.63397887      -0.83126304      -0.12943710
C       -2.35108666      -1.14955921      -0.58646618
H        5.04873304       0.56336039       0.74587572
H        4.67094230       1.42808158      -0.80680268
H        4.62741459       2.31977090       0.76347056
H        0.58625893       0.44441837       0.69187249
H       -0.25401784      -1.82766821       1.17788078
H        1.38277909      -1.63047334       1.88717515
H        1.17159410      -2.57458471       0.35881008
H       -1.15143869       2.00567628      -1.04967280
H       -3.42406370       2.56324361      -0.24036554
H       -5.01296262       0.75251908       0.35077214
H       -4.32909116      -1.62105201       0.12443900
H       -2.05994535      -2.18739570      -0.68716602
