56
Properties=species:S:1:pos:R:3 111758=T pbc="F F F"
O       -8.55046503       1.38712103       3.21553013
C       -8.23154339       1.43932921       1.99674535
O       -9.23390126       1.50755741       1.03249447
C       -6.80810007       1.42905907       1.59326616
C       -5.78866996       1.35778561       2.55963082
C       -4.44523233       1.34832698       2.17335723
C       -4.09711733       1.42015445       0.81636242
C       -2.65143300       1.37398050       0.39932251
C       -2.19977489      -0.07431306       0.18115968
C       -0.72107504      -0.13308689      -0.23308480
C       -0.26083664      -1.55942060      -0.58439278
S       -0.45914005      -2.68275734       0.85372644
C        1.04406142      -3.61313607       0.44185352
C        1.78742408      -2.79397473      -0.53716421
O        2.91463019      -3.15789987      -0.96566155
N        1.14777090      -1.60085253      -0.99111453
C        1.65768835      -0.84344652      -2.14759995
C        2.27294787       0.52772859      -1.76827232
C        3.66476259       0.57572764      -1.06355936
O        4.11630034       1.91271558      -1.10653916
C        4.71533156      -0.28497806      -1.80708730
C        6.08525265      -0.22586999      -1.11405546
C        5.97872556      -0.66202657       0.35231166
C        4.94748780       0.18429424       1.10842238
C        3.57608237       0.12587379       0.41988857
C       -5.11146060       1.47681576      -0.15095061
C       -6.45536267       1.48618725       0.23386761
H      -10.21149401       1.51593052       1.29780408
H       -6.02846024       1.30598883       3.61436998
H       -3.67572338       1.28340571       2.93280024
H       -2.51318421       1.95684180      -0.53799260
H       -2.01891630       1.85002684       1.18086441
H       -2.35115555      -0.64124252       1.12491519
H       -2.82459833      -0.53760811      -0.61435713
H       -0.60574433       0.50682291      -1.13264788
H       -0.08455448       0.27303153       0.58359875
H       -0.88472298      -1.95427236      -1.41611403
H        0.76863130      -4.58824557      -0.01113601
H        1.65294374      -3.77031165       1.35654647
H        2.36440276      -1.45080685      -2.74827393
H        0.80848344      -0.64418995      -2.83733901
H        1.55282334       1.10508767      -1.15645032
H        2.37033636       1.09597971      -2.71995168
H        3.47023561       2.47629280      -0.60420291
H        4.40576620      -1.34652425      -1.84478904
H        4.82278117       0.07451553      -2.85376472
H        6.79219443      -0.89989134      -1.64412533
H        6.49673870       0.80560102      -1.17011603
H        6.97107978      -0.55316142       0.84024632
H        5.68875245      -1.73481803       0.40200373
H        4.85175054      -0.19978509       2.14685707
H        5.29789495       1.23785078       1.16873177
H        2.86417383       0.77482124       0.97510306
H        3.20360219      -0.90934865       0.49733129
H       -4.86137858       1.51217752      -1.20422571
H       -7.21701183       1.53493649      -0.53414298
