60
Properties=species:S:1:pos:R:3 111320=T pbc="F F F"
C       -8.95209158       1.90434105      -0.21073264
C       -7.48327824       1.60759307      -0.13704942
C       -6.89252898       1.25342137       1.08575945
C       -5.51696177       1.01300576       1.16050098
C       -4.71549567       1.14016657       0.01874577
S       -2.98646388       0.81146763       0.11922489
O       -2.44300868       1.46491544       1.35779536
O       -2.27300683       1.39434470      -1.06954313
O       -2.69184482      -0.85431339       0.20919963
C       -3.25756692      -1.48234031      -0.91881509
C       -2.78714045      -2.94468312      -1.00922170
O       -3.15991723      -3.67004816       0.13689779
C       -1.27710308      -3.06265813      -1.28063915
O       -0.53080499      -2.45288964      -0.23012431
C        0.86413165      -2.32818008      -0.21573901
C        1.70123975      -2.86820121      -1.22091365
C        3.10171230      -2.70134060      -1.15106620
C        3.68596735      -1.99833977      -0.08342630
C        2.83900659      -1.47765033       0.89668977
C        1.47894926      -1.63857269       0.82897979
C        0.93025731      -1.00183679       1.92480726
C        2.01002113      -0.47295182       2.62305211
N        3.16893374      -0.76972967       1.99251309
S        4.75549122      -0.28227341       2.49169573
O        5.61291271      -1.50305362       2.67452865
O        4.67748006       0.45093290       3.80110532
C        5.44058942       0.78974477       1.27615858
C        6.62662572       0.45406160       0.60832195
C        7.15156297       1.31011775      -0.36463428
C        6.50223372       2.51632841      -0.67064302
C        7.04367298       3.41791088      -1.73992541
C        5.30410619       2.84002136      -0.01475011
C        4.77953657       1.98285868       0.95686952
C       -5.30131786       1.50571569      -1.20110708
C       -6.67655365       1.74637624      -1.27695215
H       -9.11965121       2.98608292      -0.02605783
H       -9.35390796       1.64113785      -1.21258137
H       -9.51014439       1.31649611       0.54852582
H       -7.49662879       1.16098526       1.97997889
H       -5.07723267       0.72766005       2.10775309
H       -2.96953421      -0.96651566      -1.86314394
H       -4.36653416      -1.47869276      -0.83317207
H       -3.30993108      -3.40500388      -1.87569709
H       -2.65566202      -3.30253632       0.90957791
H       -1.00271689      -4.13720795      -1.35675637
H       -1.03946987      -2.56375034      -2.24601231
H        1.28404593      -3.41534320      -2.05504537
H        3.73139019      -3.11778076      -1.92641616
H        4.75858420      -1.87014160      -0.03132947
H       -0.11779936      -0.92171154       2.18266238
H        1.94285930       0.10254134       3.53693655
H        7.14293813      -0.47044656       0.83261014
H        8.06365000       1.03191418      -0.87873000
H        6.57012370       3.16374694      -2.71170966
H        6.82853639       4.48102246      -1.49795841
H        8.14552665       3.30249045      -1.83304631
H        4.77649762       3.75492004      -0.25624543
H        3.85517438       2.24532484       1.45675798
H       -4.69725595       1.60261284      -2.09375911
H       -7.11220399       2.03793417      -2.22470483
