41
Properties=species:S:1:pos:R:3 112391=T pbc="F F F"
C       -1.87838958      -1.17792734       1.95608757
C       -0.80874262      -0.81407091       0.97556880
S        0.83213656      -0.80528571       1.34560742
C        1.35516146      -0.26421444      -0.15935167
C        2.78549541      -0.02313484      -0.55970969
C        3.55878259      -1.33918823      -0.66855504
C        4.37000852      -1.44806402       0.62014949
F        5.61168842      -2.01252553       0.38062915
C        4.50642111      -0.02413877       1.14566743
N        3.48033997       0.74920746       0.46422694
C        3.25625375       2.14537687       0.74770901
O        3.95546599       2.72052482       1.62530951
C        2.17332518       2.93344709       0.06549945
N        0.90289220       2.73550106       0.75444379
C        0.24884062      -0.09665384      -0.98222516
C       -0.96958103      -0.41410339      -0.35800577
C       -2.26313385      -0.29275439      -1.06205065
O       -2.38524654       0.57015494      -1.97304181
N       -3.34610667      -1.18858550      -0.77035083
C       -4.72106675      -0.90825934      -1.06502038
N       -5.69301781      -1.83964276      -0.93951113
C       -6.92013877      -1.33177730      -1.22966585
C       -6.92130986       0.01126387      -1.57594614
F       -8.01689429       0.74024819      -1.89787476
S       -5.34635669       0.59316270      -1.52019266
H       -1.50822800      -1.02834907       2.99186130
H       -2.15556190      -2.24449812       1.82961449
H       -2.77126618      -0.53481784       1.81164713
H        2.83131530       0.50716276      -1.53605131
H        2.89711850      -2.22339567      -0.80570126
H        4.25213543      -1.28334072      -1.53690948
H        3.81646403      -2.07000041       1.35761743
H        5.50784322       0.39296424       0.90209360
H        4.34399214       0.00195490       2.24515615
H        2.07661209       2.62229699      -0.99500335
H        2.43774514       4.01466458       0.06785140
H        0.16301975       3.23533406       0.21032736
H        0.95832083       3.20568432       1.68727813
H        0.32407172       0.23919238      -2.00881915
H       -3.12255138      -2.11995853      -0.35501051
H       -7.81785801      -1.93345457      -1.18534896
