26
Properties=species:S:1:pos:R:3 113189=T pbc="F F F"
N       -2.58979690       0.91345125      -0.50876981
C       -1.83131171      -0.33977919      -0.53536549
C       -1.56159942      -0.84552354       0.88464400
C       -0.65632528       0.12475711       1.64346939
C        0.60937422       0.52006476       0.85158370
C        1.73147570      -0.50984535       0.88152348
C        2.54549615      -0.19521531      -0.36508313
C        1.71354059       0.82105564      -1.15341300
N        0.36472233       0.85140679      -0.56469341
C       -0.49199134      -0.14397110      -1.25436005
H       -2.80142323       1.19073567      -1.49496411
H       -3.51525047       0.72765767      -0.05792641
H       -2.41975687      -1.11233459      -1.08096926
H       -1.08127215      -1.84724971       0.83921175
H       -2.52067229      -0.96421211       1.43409206
H       -1.23617443       1.04668235       1.86919790
H       -0.36653764      -0.32454464       2.61813307
H        1.00310557       1.43900718       1.34608400
H        2.34443393      -0.41138717       1.80403239
H        1.32632530      -1.54299154       0.81793690
H        2.70420845      -1.11765348      -0.96545357
H        3.53298309       0.23803021      -0.09356474
H        1.70454605       0.57798277      -2.24067732
H        2.16824269       1.83074892      -1.04836812
H       -0.69510899       0.20479743      -2.29095468
H        0.01876667      -1.13167001      -1.33534555
