35
Properties=species:S:1:pos:R:3 114911=T pbc="F F F"
O        1.97592871       2.11202575      -0.30959887
C        2.28622159       0.97090979       0.44466202
C        1.25683771      -0.04823843       0.21583798
C        0.41044161      -0.88554984       0.02704464
C       -0.62370619      -1.90113362      -0.20149181
O       -1.86221701      -1.27956292      -0.48148890
C       -2.57303315      -1.03580802       0.71516116
C       -3.78080082      -0.20189111       0.39994357
C       -5.00629914      -0.81423124       0.08854671
C       -6.11958004      -0.03411693      -0.24015940
C       -6.01352275       1.35907517      -0.27372518
C       -4.79251473       1.97451367       0.01601449
C       -3.67717303       1.19813634       0.34612306
C        3.63744294       0.42423419       0.04823435
C        4.56972761       0.05563399       1.03406023
C        5.81329226      -0.46939186       0.66852475
C        6.13462399      -0.63647187      -0.68102596
C        5.21157447      -0.28236381      -1.66820811
C        3.96686020       0.24308779      -1.30807905
H        2.55269760       2.84433552       0.03302194
H        2.26762335       1.22909776       1.52844149
H       -0.66608967      -2.60379818       0.66307275
H       -0.32620240      -2.49809767      -1.08811712
H       -1.94386719      -0.49208773       1.45822397
H       -2.89581365      -1.99838678       1.17291946
H       -5.09968350      -1.89311982       0.10043494
H       -7.06338412      -0.50990177      -0.47343079
H       -6.87566722       1.96117658      -0.53017283
H       -4.70902468       3.05326485      -0.02056267
H       -2.73385651       1.68679096       0.55790653
H        4.33532236       0.17367826       2.08463439
H        6.52752562      -0.74892505       1.43229263
H        7.09762125      -1.04303532      -0.96180099
H        5.45994283      -0.41632671      -2.71316961
H        3.25875169       0.50647800      -2.08406977
