27
Properties=species:S:1:pos:R:3 114199=T pbc="F F F"
C        2.63356643       0.26445118      -1.41884197
C        2.25457985      -0.18259174      -0.20909777
C        3.31658130      -0.65729767       0.74900893
C        0.78765087      -0.21271574       0.19942317
C        0.17464836       1.20345156       0.20449542
C       -1.28195382       1.16466571       0.69234673
C       -2.15678432       0.24151727      -0.18281025
C       -3.56002900       0.11981906       0.43082025
F       -2.28315495       0.80546415      -1.44222546
C       -1.48398615      -1.11056777      -0.33195588
O       -2.12474752      -2.14884388      -0.24972361
C       -0.02533604      -1.16476507      -0.69849580
H        1.90829798       0.61780684      -2.14409902
H        3.68245998       0.28246321      -1.70017149
H        2.88110401      -1.00183014       1.70969295
H        4.02362477       0.17134777       0.96565658
H        3.87649894      -1.50411345       0.29855926
H        0.71546169      -0.60452521       1.23885450
H        0.76276754       1.85869335       0.88363853
H        0.20641238       1.64901281      -0.81346589
H       -1.29859623       0.81471447       1.74889494
H       -1.69472540       2.19703701       0.67322733
H       -3.51059468      -0.35863457       1.43287311
H       -4.02037918       1.12536747       0.53781328
H       -4.21632042      -0.48970063      -0.22667156
H        0.07358006      -0.87832064      -1.76713595
H        0.35937353      -2.20190535      -0.58061033
