24
Properties=species:S:1:pos:R:3 114872=T pbc="F F F"
C        2.90507667      -1.36936613      -0.01435380
C        1.74874980      -0.45330077      -0.42364375
C        1.68192277       0.77712570       0.49712981
C        0.48732617       1.66291842       0.12598951
C       -0.79607927       0.87283692       0.08638253
C       -2.02727412       1.52531521       0.25444049
C       -3.22252467       0.80560684       0.17357258
C       -3.19829136      -0.56678397      -0.08759696
F       -4.35975947      -1.26192818      -0.16514077
C       -1.97803215      -1.22283247      -0.27334982
C       -0.77306649      -0.50858267      -0.19702983
N        0.47986457      -1.18721830      -0.38038499
H        2.97491715      -2.22832634      -0.71510848
H        3.86625854      -0.81340810      -0.04873968
H        2.74737844      -1.75813393       1.01457479
H        1.92547141      -0.11184129      -1.46755418
H        1.57930225       0.45201727       1.55655268
H        2.61744239       1.37083355       0.40449380
H        0.40769550       2.48418222       0.87123664
H        0.65892358       2.11821331      -0.87335001
H       -2.06092811       2.59046888       0.44748869
H       -4.16831504       1.31402386       0.31014400
H       -1.96989582      -2.28598409      -0.47838420
H        0.47383729      -2.20583594      -0.61736904
