60
Properties=species:S:1:pos:R:3 115563=T pbc="F F F"
C        5.42862863      -3.18574868      -0.88762328
C        5.31327883      -2.41351151       0.42938553
C        3.85705766      -2.16917516       0.90967844
C        3.18031716      -3.49306912       1.31086112
C        3.00115690      -1.38194462      -0.12236911
N        3.67066525      -0.13872813      -0.51881702
C        3.38697085       0.51649431      -1.76320677
C        4.06302180       1.80419038      -2.09501402
O        2.52484764       0.04384588      -2.55377230
C        1.63818399      -1.04501856       0.42688070
O        0.61841312      -1.60003552      -0.06533274
N        1.49557116      -0.07825043       1.48009017
C        0.18844341       0.47652514       1.84553647
C        0.27126303       1.20464074       3.18848857
C       -0.29120608       1.42599664       0.78086273
O        0.54847636       2.06804808       0.08991177
N       -1.69947520       1.64532006       0.60088334
C       -2.24131951       2.42279695      -0.51627306
C       -2.69230175       1.49706959      -1.66603413
C       -3.76927177       0.51214334      -1.27359812
C       -5.12103989       0.79894414      -1.52928251
C       -6.12202390      -0.10344016      -1.14999546
C       -5.78251261      -1.30258542      -0.51547922
O       -6.79037993      -2.18888363      -0.13584695
C       -4.43443612      -1.59993965      -0.26614038
C       -3.43252149      -0.69959931      -0.64704723
P       -3.58213506       3.51310938       0.08395986
O       -2.98641071       4.56120879       0.99807406
O       -4.32710631       4.27707701      -1.23101203
O       -4.72726015       2.60974475       0.94484547
H        5.00038556      -2.60256143      -1.72754821
H        6.50178278      -3.36472704      -1.11208560
H        4.92289862      -4.17109853      -0.81892737
H        5.83965903      -1.44244351       0.31311572
H        5.86602144      -2.97214969       1.21478000
H        3.93478541      -1.55581274       1.83498657
H        2.25087179      -3.29226143       1.87892880
H        3.84700738      -4.09202198       1.96409149
H        2.91999124      -4.09393924       0.41810664
H        2.86649207      -2.02503638      -1.02135358
H        4.28967607       0.35263295       0.16838084
H        5.15101844       1.72210456      -1.88207875
H        3.62862583       2.61748719      -1.47322099
H        3.92310418       2.05438350      -3.17068925
H        2.35987660       0.33376627       1.90431282
H       -0.54217372      -0.35666806       1.95415843
H        0.63753563       0.50924007       3.97322087
H       -0.73624616       1.57045026       3.48751884
H        0.96466233       2.07250590       3.12309882
H       -2.36444407       1.14048258       1.22986567
H       -1.45661534       3.09744621      -0.92472638
H       -1.80667280       0.93490058      -2.03898141
H       -3.04068589       2.12138752      -2.51781950
H       -5.40135685       1.72491256      -2.01342394
H       -7.16300980       0.13164250      -1.34632339
H       -6.57690386      -3.06189434       0.33251497
H       -4.16152162      -2.52659528       0.22310559
H       -2.39511590      -0.94527455      -0.44961449
H       -4.99300037       4.88857826      -0.82645397
H       -5.45354334       3.25333798       1.15044686
