62
Properties=species:S:1:pos:R:3 116851=T pbc="F F F"
C       -1.30423134      -2.33369908      -0.62144958
O       -0.34079464      -1.54154772       0.04204098
C       -0.46363911      -0.13172134      -0.18794022
P       -1.99671501       0.57743254       0.68586804
C       -3.33347653       0.98556348      -0.53308468
C       -3.60501493       2.34294294      -0.80264284
C       -4.58249870       2.70087177      -1.73766337
C       -5.28729619       1.70025668      -2.41948281
C       -5.00843353       0.35177370      -2.17520353
C       -4.03201210      -0.00569617      -1.23530947
C       -2.59382894      -0.63966160       1.93247070
C       -3.94549758      -1.00065955       2.00985409
C       -4.36676376      -1.94782610       2.95674366
C       -3.44129168      -2.49650148       3.84822330
C       -2.09512322      -2.11598646       3.79189541
C       -1.67833827      -1.18200911       2.84768215
C       -0.44675188       0.25529988      -1.68508009
C        0.13244812       1.65029822      -1.73834111
C        0.85016863       1.82256113      -0.40297042
N        0.68724798       0.59257714       0.39881736
P        2.19695908      -0.44213654       0.48468662
C        3.39433543       0.37072168       1.64336899
C        3.89545103       1.67410218       1.46366398
C        4.84360303       2.18919539       2.35921524
C        5.30554444       1.42489682       3.42849097
C        4.80886810       0.13171017       3.61032771
C        3.86620895      -0.39373641       2.71976420
C        2.86426700      -0.60258348      -1.23029361
C        3.60435995       0.41027448      -1.86069825
C        4.05176652       0.24964397      -3.18262393
C        3.79738029      -0.94077802      -3.86794496
C        3.09189670      -1.96888581      -3.23449998
C        2.61695340      -1.79529902      -1.93098839
H       -0.96637274      -3.38452021      -0.53839016
H       -1.39653958      -2.09643238      -1.70878862
H       -2.28413099      -2.29196925      -0.09221740
H       -3.05626787       3.11568293      -0.29138070
H       -4.79586917       3.75198343      -1.93342550
H       -6.04714808       1.96609813      -3.14041976
H       -5.54378186      -0.41755980      -2.71379848
H       -3.84402483      -1.05228218      -1.06561736
H       -4.68233531      -0.57008043       1.34987334
H       -5.41193843      -2.24293357       3.00701159
H       -3.76260454      -3.21657112       4.59011901
H       -1.38266058      -2.53842377       4.48548265
H       -0.64026271      -0.88091559       2.81587874
H        0.22570776      -0.41210260      -2.24837622
H       -1.43918141       0.21893873      -2.18996071
H       -0.69394468       2.39034156      -1.82102340
H        0.83288497       1.75275358      -2.59642313
H        1.91205453       2.07058430      -0.58564169
H        0.39419544       2.67184775       0.16135210
H        3.58432102       2.30300422       0.64902822
H        5.23885469       3.19175821       2.19758340
H        6.03742022       1.83077598       4.10818381
H        5.17960445      -0.46843763       4.43274934
H        3.51382204      -1.41053836       2.87105919
H        3.85033635       1.33462007      -1.35767288
H        4.59114908       1.05336340      -3.67156250
H        4.15029453      -1.07423833      -4.88041354
H        2.90011261      -2.89510077      -3.74910439
H        2.05055385      -2.59104058      -1.46100111
