23
Properties=species:S:1:pos:R:3 119383=T pbc="F F F"
C        3.98700343       0.35675427      -0.61712665
C        2.98935872      -0.41449617      -1.05693123
C        1.60512201       0.13489509      -1.26283781
O        1.07530802       0.62619262      -0.04520322
C        0.45603764      -0.40745843       0.69759442
C       -1.02538119      -0.51334711       0.31192789
C       -1.93961539      -1.06029973       1.40020094
C       -1.96023083       0.42768643       1.06306814
C       -3.15454599       0.86803683       0.27766692
O       -4.30929383       0.74615637       0.76637298
O       -2.98556209       1.45444467      -0.97260454
H        4.97824704      -0.06300030      -0.48033014
H        3.82321947       1.40631414      -0.39178364
H        3.18242708      -1.45965978      -1.27944646
H        1.66293415       0.97761865      -1.98378506
H        0.95371262      -0.63647281      -1.73492944
H        0.94725215      -1.39887649       0.55993545
H        0.56858073      -0.16088764       1.77572352
H       -1.31230979      -0.80152598      -0.72278657
H       -1.45069782      -1.29986206       2.36858986
H       -2.79439917      -1.65569000       1.01255130
H       -1.51338339       1.10260874       1.82416763
H       -3.78378357       1.77086870      -1.51003428
