53
Properties=species:S:1:pos:R:3 119073=T pbc="F F F"
C        2.48014006       4.94780954      -0.55788193
O        2.15396453       3.64479708      -0.09103598
C        2.13299090       2.52609265      -0.93101193
O        2.41691797       2.64639067      -2.15566059
C        1.71955696       1.17789787      -0.37604417
O        1.68318320       1.23836969       1.03315904
C        2.71511505       0.10065078      -0.84473624
C        2.46823276      -1.26495934      -0.17477643
C        3.10567453      -2.35981639      -1.00114119
C        2.74419751      -3.63007894      -0.83530684
C        1.61843609      -3.94912641       0.09702433
N        0.54219385      -2.94928497      -0.02087309
C       -0.17262354      -2.99115106      -1.30961232
C       -0.44020404      -1.55097353      -1.74161295
C       -0.08964334      -0.69149489      -0.52474435
C       -1.31275884      -0.47225695       0.34245417
C       -2.09853010      -1.41998117       1.01246232
C       -3.20595346      -0.98414363       1.75507538
C       -3.52607680       0.39338964       1.82363535
O       -4.62291868       0.87421917       2.55363251
C       -5.51900392       0.05060980       3.29240639
C       -2.72335474       1.32045210       1.13999665
C       -1.62411364       0.85837511       0.40958258
N       -0.72337871       1.65116135      -0.34058590
C       -1.02245535       3.01053882      -0.78950264
C        0.31962679       0.78588983      -0.91033272
C        0.96370668      -1.55065517       0.21442712
H        1.75612350       5.26320863      -1.33882710
H        2.42852217       5.66182659       0.28937767
H        3.50971393       4.95596619      -0.97415341
H        2.60771588       1.40889814       1.35493309
H        3.75734865       0.42541026      -0.62474228
H        2.63599110      -0.00407857      -1.95166872
H        3.03708691      -1.25381732       0.78261006
H        3.89192010      -2.12453542      -1.71353610
H        3.19872520      -4.41241380      -1.43530739
H        2.00140012      -3.95089984       1.14030261
H        1.22363362      -4.96549316      -0.11891813
H        0.40019065      -3.52283541      -2.10246577
H       -1.13528619      -3.52683293      -1.16812753
H       -1.49231560      -1.41067976      -2.07575985
H        0.23552250      -1.30940507      -2.59192271
H       -1.86585125      -2.47403613       0.96915688
H       -3.80550789      -1.72190277       2.27030608
H       -6.02458933      -0.66825213       2.61354706
H       -6.28924547       0.69021478       3.76987501
H       -4.96825295      -0.49599613       4.08684054
H       -2.95315803       2.37713754       1.18461180
H       -0.88990777       3.71785407       0.05525324
H       -0.35504927       3.30819183      -1.62353433
H       -2.06902889       3.06627765      -1.15632260
H        0.30438453       0.90526048      -2.01791838
H        0.87699209      -1.35178937       1.30739371
