45
Properties=species:S:1:pos:R:3 119412=T pbc="F F F"
C        6.03444168       0.87400352      -1.78313234
O        4.75016077       0.34245665      -1.48249485
C        4.07171521       0.63678733      -0.29488317
O        4.59129697       1.39736839       0.56741885
C        2.72210322       0.03070818      -0.03609405
C        1.75473888       0.35516444      -1.19569845
C        0.29017195      -0.04595203      -0.89733938
C       -0.60926651       1.14943681      -0.49602810
C       -0.20380301       1.75428010       0.85818956
C       -2.11180960       0.77729801      -0.52712500
C       -2.50646061      -0.35566649       0.43670369
C       -4.00213299      -0.55087900       0.44077311
C       -4.85659766       0.12133887       1.24378223
C       -6.33279368      -0.14986880       1.10944422
C       -4.37257130       1.11498588       2.27447708
C        2.87628956      -1.45300377       0.15536540
O        2.66515993      -1.96109699       1.29076508
O        3.26554713      -2.25790076      -0.92060529
C        3.42720608      -3.66600691      -0.80477960
H        6.76991473       0.54537074      -1.01847833
H        5.99016209       1.98348930      -1.80987394
H        6.35883217       0.50295204      -2.77695414
H        2.31675894       0.47036797       0.90092379
H        1.81292806       1.44007695      -1.43515694
H        2.09342614      -0.17918927      -2.11138484
H       -0.12989595      -0.49892610      -1.82255451
H        0.25047755      -0.83330971      -0.11457534
H       -0.47884059       1.94657873      -1.26202459
H       -0.10768508       0.96841999       1.63639591
H       -0.95522188       2.50127972       1.19193020
H        0.76844534       2.28157844       0.76431989
H       -2.70663962       1.68820562      -0.29980969
H       -2.38507780       0.47474865      -1.56237938
H       -2.13646900      -0.16475618       1.46389852
H       -2.04392098      -1.30454463       0.09231558
H       -4.40426207      -1.26603500      -0.27309571
H       -6.92893081       0.45147321       1.82696841
H       -6.53654009      -1.22424024       1.30393505
H       -6.66806113       0.10271704       0.08116137
H       -3.78765911       1.92270137       1.78917982
H       -5.22013561       1.58864865       2.81165772
H       -3.73944680       0.60090111       3.02762553
H        2.46693490      -4.13497436      -0.50222654
H        3.73567184      -4.07918492      -1.78680198
H        4.21183874      -3.89780254      -0.05373486
