40
Properties=species:S:1:pos:R:3 121186=T pbc="F F F"
C       -5.42134579       0.23807778       0.46155421
C       -4.09777107      -0.43394074       0.59583173
O       -4.04609539      -1.65395965       0.91052155
O       -2.92765862       0.31296319       0.42290666
C       -1.61486108      -0.24267659       0.50532653
C       -1.29467918      -1.04261054      -0.75944322
C        0.06327409      -1.73861536      -0.63052920
C        1.16036572      -0.86517011      -0.03760613
C        0.83347307       0.35445586       0.61475232
C        1.85127324       1.15121540       1.15632421
C        3.17998218       0.74655738       1.10312942
C        3.52462712      -0.47154196       0.51135168
C        4.86875152      -0.87733829       0.48713112
C        5.22522633      -2.09930021      -0.08166039
C        4.24640878      -2.92843593      -0.62573680
C        2.90494926      -2.53881566      -0.61322641
C        2.51760149      -1.29822734      -0.05539581
C       -0.58235158       0.88479232       0.67045306
O       -0.73339649       1.86740189      -0.35802500
C       -1.63250573       2.93810640      -0.29007303
C       -1.77975611       3.84588667      -1.46284522
O       -2.34190257       3.12531598       0.73554012
H       -5.32196844       1.14815421      -0.16661433
H       -5.79246622       0.52801710       1.46638821
H       -6.15106382      -0.44940602      -0.01582179
H       -1.55452279      -0.90901374       1.39648671
H       -2.07603518      -1.81323879      -0.93230243
H       -1.28848243      -0.36825810      -1.64427653
H        0.35575848      -2.07153631      -1.64927586
H       -0.05501494      -2.63775935       0.01267327
H        1.61207334       2.09939029       1.62291303
H        3.94101738       1.38633495       1.53460402
H        5.64356828      -0.25074207       0.91320505
H        6.26275804      -2.40746367      -0.09481271
H        4.52750564      -3.88042416      -1.05763110
H        2.18484521      -3.22570083      -1.03422084
H       -0.74034259       1.35476637       1.66793181
H       -1.92011853       4.89244098      -1.11930102
H       -2.66041629       3.53459281      -2.06210524
H       -0.87070432       3.79570583      -2.09812164
