24
Properties=species:S:1:pos:R:3 121817=T pbc="F F F"
C       -3.95541913      -0.42131938      -1.27966598
C       -2.85404777       0.43547670      -0.75496134
O       -2.92940613       1.68917020      -0.86903111
O       -1.72800861      -0.16341012      -0.18379900
C       -0.62827647       0.59005595       0.31723948
C        0.43161829      -0.36663401       0.88467595
C        1.15602534      -1.20577965      -0.18523119
C        2.61648211      -0.84414949       0.13400831
C        2.86429166       0.56209405      -0.32492577
C        2.24880821       1.31568222       0.57422525
C        1.64215054       0.33351900       1.53767253
O        2.59957112      -0.68718676       1.52604526
H       -3.94130359      -1.40926677      -0.77345455
H       -3.82055568      -0.56939547      -2.37118918
H       -4.93713734       0.06300533      -1.09320213
H       -0.98246622       1.26219936       1.12887302
H       -0.20416122       1.21040727      -0.50227435
H       -0.04384109      -1.03783949       1.63515021
H        0.88003618      -0.93289689      -1.22861200
H        0.98105996      -2.29088045      -0.01822059
H        3.36915957      -1.58087710      -0.21768593
H        3.50190047       0.90674821      -1.13185001
H        2.28013008       2.39762855       0.64388989
H        1.45338973       0.74364873       2.55232321
