39
Properties=species:S:1:pos:R:3 121432=T pbc="F F F"
C        0.53053311       3.05351219       0.87218061
C        0.66565854       1.83499822       0.01398342
O       -0.00472588       1.76509161      -1.05136393
C        1.61742049       0.75056692       0.36245287
C        1.35336976      -0.54726150       0.09454011
N        0.07777142      -0.97597948      -0.40456755
C       -1.13380843      -0.85644021       0.41319481
C       -1.42569236      -2.18462571       1.11620060
C       -2.30523059      -0.41986991      -0.44202503
C       -2.71783814      -1.18209331      -1.55208302
C       -3.79823347      -0.76409432      -2.33486544
C       -4.47742441       0.41500540      -2.01989239
C       -4.07835999       1.17833230      -0.92043812
C       -2.99935839       0.76465312      -0.13356164
C        2.39824731      -1.58694135       0.40068881
C        3.78072238      -1.09720581      -0.04649780
C        4.11469565       0.32742871       0.45707196
C        2.91619570       1.08707651       1.06179445
H       -0.49005788       3.47948855       0.76977200
H        0.69505259       2.79410650       1.93929397
H        1.27323358       3.81574574       0.55758916
H        0.08255697      -1.68600263      -1.17139655
H       -0.96378663      -0.10195213       1.21391717
H       -1.55762713      -3.00501143       0.37940031
H       -2.34736485      -2.09751854       1.73045133
H       -0.58004150      -2.44716283       1.78699736
H       -2.20626906      -2.09937030      -1.81309705
H       -4.10901680      -1.35517776      -3.18665291
H       -5.31315461       0.73701817      -2.62760428
H       -4.60527499       2.09202286      -0.67749615
H       -2.70429371       1.37205624       0.71311445
H        2.40482455      -1.78530163       1.49438352
H        2.16050593      -2.53908692      -0.12073650
H        3.81113105      -1.10389849      -1.15871437
H        4.55450025      -1.81228193       0.30777748
H        4.52042327       0.91851962      -0.39329797
H        4.91892219       0.26993799       1.22260650
H        3.12794607       2.17648355       1.01192369
H        2.81384802       0.81523200       2.13495613
