25
Properties=species:S:1:pos:R:3 122999=T pbc="F F F"
C       -4.15576534      -1.03174571      -0.60263413
O       -2.75539253      -1.18435671      -0.40621616
C       -1.99098032      -0.25864631       0.30970612
O       -2.53159385       0.74873467       0.84240952
C       -0.52478771      -0.49108940       0.48256701
C        0.21235127      -0.57215312      -0.68794379
C        1.50403207      -1.31713192      -0.58848215
O        1.49077063      -2.56851604      -0.43203719
O        2.71257815      -0.62538253      -0.71064653
C        3.97670420      -1.27181105      -0.62831533
N        0.26671695       0.71119224       0.07751293
C        0.72148764       2.04604795       0.27259429
C        0.25099597       2.83049002       1.45054179
O        1.48473230       2.57640705      -0.57649156
H       -4.53533789      -1.88596810      -1.19978346
H       -4.36187148      -0.08868075      -1.15184200
H       -4.67788459      -1.01724254       0.37747260
H       -0.14385689      -0.93653259       1.42716413
H       -0.27361988      -0.43976200      -1.67895543
H        4.06752442      -2.03357341      -1.43135250
H        4.09121904      -1.75672366       0.36424869
H        4.78044403      -0.51783789      -0.75493137
H        1.01107557       3.58827785       1.73558326
H        0.08036253       2.15293245       2.31347360
H       -0.69990428       3.34307150       1.19635768
