51
Properties=species:S:1:pos:R:3 123061=T pbc="F F F"
C       -3.10114100       1.70579423       2.22660313
Si      -1.50406793       2.49320407       1.66108758
C       -0.60491519       3.16285291       3.15342653
C       -1.88082400       3.91293294       0.50626723
C       -0.39591117       1.21840830       0.83201977
C       -1.08486622       0.51404645      -0.34856537
O       -1.41680916       1.43629941      -1.37685767
C       -1.32160574       0.78575611      -2.57955917
O       -1.67728091       1.28602147      -3.67747990
O       -0.77448338      -0.46952825      -2.45036403
C       -0.34699774      -0.68159683      -1.10060986
C       -0.86152501      -2.05526018      -0.65109534
C       -1.17663647      -2.32748926       0.69791563
C       -1.59926858      -3.60087471       1.08969826
C       -1.69720492      -4.62788624       0.15011866
F       -2.10422193      -5.86278077       0.53423171
C       -1.36343321      -4.38549218      -1.18286266
C       -0.94055864      -3.11413530      -1.58065326
C        1.23066912      -0.69962570      -1.13577924
C        1.87058692       0.52820027      -1.83469399
C        3.38673491       0.34682464      -1.99989054
C        4.06513510       0.04452952      -0.65949897
C        3.44479557      -1.19097739       0.00213353
C        1.93803180      -0.99638960       0.21069895
H       -2.87352406       0.81737249       2.85072383
H       -3.68151163       2.43886897       2.82337451
H       -3.69912700       1.39707603       1.34507653
H        0.34420545       3.63735887       2.83004399
H       -1.24125686       3.91602566       3.66167207
H       -0.38310443       2.33201001       3.85419549
H       -2.38734920       4.72124316       1.07235385
H       -0.93460517       4.30021382       0.07593380
H       -2.54832030       3.56864298      -0.30930980
H       -0.15130739       0.48369562       1.62185621
H        0.51985807       1.74823258       0.51869777
H       -2.05538536       0.12344128       0.02957324
H       -1.09235467      -1.56523523       1.45659946
H       -1.84417671      -3.79191924       2.12665934
H       -1.42520197      -5.18509450      -1.90986857
H       -0.66770214      -2.96155212      -2.61710605
H        1.48333553      -1.56354838      -1.79425769
H        1.44038489       0.65928611      -2.84968440
H        1.68187806       1.46107448      -1.27291983
H        3.82237620       1.27481889      -2.42907970
H        3.58734222      -0.48331425      -2.71264863
H        3.96593077       0.92242149       0.01640510
H        5.14825278      -0.13616094      -0.82980110
H        3.62689146      -2.08860862      -0.62906540
H        3.93262649      -1.36196776       0.98606847
H        1.81668636      -0.16702920       0.92783427
H        1.53095639      -1.92018613       0.67038229
