43
Properties=species:S:1:pos:R:3 123319=T pbc="F F F"
C       -3.23148095       3.09353313       2.06458904
C       -3.13098414       3.07154948       0.53936199
C       -2.81041717       1.67556545      -0.01892682
C       -1.35126829       1.25728172       0.24102994
C       -1.02135574      -0.15964015      -0.30769583
N       -0.92511681      -0.10565412      -1.77442622
C        0.29303655      -0.74400933       0.34060852
O        0.06697896      -0.82687322       1.73151427
C        0.63610217      -2.17954741      -0.13236816
C       -0.36438035      -3.10964557      -0.50391113
C       -0.03191575      -4.42232570      -0.85183086
C        1.29315946      -4.85039430      -0.79534212
C        2.28832951      -3.97225648      -0.37117953
C        1.96359785      -2.65879019      -0.02286914
C        1.45010332       0.23457289       0.04421588
C        1.86809563       1.18351665       1.00334707
C        2.88650712       2.09466167       0.70930762
C        3.49560268       2.08548007      -0.54588298
C        3.08319893       1.16928254      -1.51361531
C        2.06469497       0.25656944      -1.22707631
H       -2.23875594       2.92289636       2.52922160
H       -3.94530632       2.32010828       2.41919550
H       -3.59789457       4.08829359       2.39470532
H       -2.36435452       3.80404131       0.20516649
H       -4.10945269       3.39797430       0.12459054
H       -3.50662246       0.92783785       0.41997193
H       -2.99537329       1.70767012      -1.11251667
H       -1.17811382       1.27366285       1.33611529
H       -0.67071887       2.00542521      -0.22161712
H       -1.87439783      -0.81011648      -0.01858431
H       -1.87481659       0.07622950      -2.16900114
H       -0.65917534      -1.04175021      -2.15025454
H        0.89281757      -1.17371845       2.16272262
H       -1.40860461      -2.84329588      -0.53335444
H       -0.80803139      -5.11352356      -1.15449947
H        1.54594924      -5.86873079      -1.06095933
H        3.31313184      -4.31296787      -0.29831113
H        2.75702203      -2.01981408       0.34226168
H        1.40261805       1.23376639       1.97863401
H        3.19922073       2.81413995       1.45507301
H        4.28316862       2.79304898      -0.77074046
H        3.55152035       1.16725345      -2.48930111
H        1.76368187      -0.44130743      -1.99736819
