115
Properties=species:S:1:pos:R:3 123959=T pbc="F F F"
O       -2.11567669       0.78474699      -1.40995209
C       -2.53265911       1.61679547      -2.25869103
C       -1.60152923       2.09550956      -3.34720851
C       -0.11212095       2.03770618      -2.96624766
C        0.49307669       0.63815585      -3.15140742
C        2.02759327       0.63930589      -3.03942749
C        2.55268093       0.91189731      -1.61291216
C        2.90384469       2.35259294      -1.33546909
O        2.55984478       3.27255009      -2.12782445
N        3.55949863       2.70408081      -0.11344850
C        2.92693716       3.46565941       0.95659916
C        3.85891162       3.31355828       2.19319772
C        3.21095190       2.44210037       3.28092528
Cl       1.85060601       3.30262539       4.04865897
C        5.07631297       2.64183223       1.61481730
C        4.82981200       2.26208211       0.32308764
C        5.77776390       1.56312180      -0.43233220
C        6.98663096       1.18910802       0.16882040
O        7.83308760       0.33306718      -0.54461477
C        8.04111759      -1.03589314      -0.18102928
O        8.73347508      -1.67715161      -1.23128148
C        9.25906007      -2.93660814      -0.81845626
C        9.71819751      -3.68541573      -2.08562168
O       10.54374014      -4.76613649      -1.76448297
C        8.23924744      -3.76497975       0.04664847
O        8.32655330      -5.15086799      -0.17639513
C        6.80000407      -3.28308565      -0.20235729
O        6.42590980      -3.54824592      -1.53281570
C        6.69042481      -1.76170328       0.07243187
O        6.30467744      -1.54452370       1.40985383
C        7.29898228       1.65012115       1.47595673
C        8.56231765       1.42837589       2.05111439
C        8.84282231       1.87429378       3.34537371
C        7.88037847       2.57911912       4.07031844
C        6.63278398       2.85042657       3.50663973
C        6.32559720       2.38939914       2.21426446
N       -3.90539051       2.07175819      -2.21088211
C       -4.38977156       3.25652902      -2.92224524
C       -5.82389111       3.53360502      -2.39200441
C       -6.89541182       3.34511863      -3.48561907
Cl      -6.92393817       1.68980509      -4.15912599
C       -5.98100383       2.54241739      -1.28093145
C       -4.90027049       1.69374519      -1.25655123
C       -4.88316071       0.58031899      -0.40789961
C       -5.95700053       0.36519640       0.46806809
O       -5.94344126      -0.79340821       1.25560021
C       -6.95108218      -1.80365266       1.17999625
O       -7.33655030      -2.13757487       2.50637613
C       -8.15731994      -3.30161348       2.62610607
C       -7.42515745      -4.31736222       3.51856962
O       -7.08501174      -3.73258722       4.74558403
C       -8.63315899      -3.92464166       1.28015604
O       -9.33158793      -5.12578138       1.50750287
C       -7.45701258      -4.13883991       0.30123874
O       -6.86512438      -5.39594727       0.52058073
C       -6.38819430      -3.03141539       0.43441151
O       -5.94125294      -2.66172926      -0.84655853
C       -7.00301719       1.32246484       0.55770310
C       -8.01092870       1.22293522       1.53426199
C       -9.00736057       2.19610113       1.62848134
C       -9.01685623       3.28025593       0.75283617
C       -8.03242179       3.39950860      -0.22951458
C       -7.01905135       2.42780097      -0.33680940
H       -1.82885722       3.15530549      -3.57763138
H       -1.79176104       1.52108433      -4.27994204
H        0.01705990       2.37528656      -1.91893423
H        0.43489465       2.75209767      -3.62097884
H        0.23566492       0.25980323      -4.16532438
H        0.06287895      -0.07113801      -2.41705137
H        2.37931144      -0.37130598      -3.34131556
H        2.47401474       1.34504224      -3.77583205
H        3.46410067       0.29760903      -1.46780349
H        1.82572581       0.56333031      -0.84690654
H        2.85997530       4.53227181       0.66039050
H        1.90384317       3.07385761       1.13824779
H        4.12854062       4.31228742       2.59457874
H        3.94060400       2.19498535       4.07564522
H        2.83928041       1.48703377       2.85491568
H        5.58199283       1.27814067      -1.45620838
H        8.65987682      -1.06288378       0.74354520
H       10.16598715      -2.74346828      -0.19822660
H       10.26587219      -2.99237110      -2.76137827
H        8.83362963      -4.05922846      -2.64234098
H       11.44264160      -4.40255828      -1.56131429
H        8.46201830      -3.56075509       1.12843091
H        9.13651694      -5.46335485       0.30895289
H        6.11172695      -3.82421013       0.49344566
H        6.11716962      -4.49222146      -1.56829615
H        5.91705745      -1.33435029      -0.61280644
H        5.31468390      -1.56923112       1.43183231
H        9.34860299       0.93607572       1.48932564
H        9.81934455       1.68480683       3.78411976
H        8.10840020       2.91881290       5.07146843
H        5.92241023       3.42374161       4.08709046
H       -3.73868818       4.12841163      -2.68317200
H       -4.35718599       3.07570325      -4.01972213
H       -5.87088254       4.57275116      -1.99051948
H       -6.70948112       4.05991200      -4.31754475
H       -7.90122925       3.56064765      -3.07733368
H       -4.07927101      -0.13794942      -0.43409689
H       -7.83123218      -1.40320374       0.62879807
H       -9.07685753      -2.99635385       3.17306299
H       -6.48922570      -4.64901407       3.03044443
H       -8.05943195      -5.20782760       3.69423625
H       -7.92282835      -3.64754180       5.26595928
H       -9.33844839      -3.19167765       0.82308481
H       -9.81873830      -5.33546133       0.67024473
H       -7.89414932      -4.11543746      -0.72689766
H       -6.39774569      -5.64712888      -0.32707136
H       -5.53266743      -3.42764014       1.03392070
H       -4.98719132      -2.40963715      -0.75977268
H       -8.00697078       0.43049697       2.26794998
H       -9.76479824       2.11585538       2.39448737
H       -9.78299844       4.03779431       0.83789653
H       -8.03967373       4.27617778      -0.86971695
