70
Properties=species:S:1:pos:R:3 123472=T pbc="F F F"
C       -8.18127515      -3.35475046       3.74830174
C       -8.19111028      -1.96251647       3.84549515
C       -7.19171722      -1.20779606       3.22390318
C       -6.16871704      -1.84245684       2.49399869
C       -5.10240565      -1.04400835       1.83535491
C       -3.76899901      -1.48691633       1.84407775
C       -2.76670947      -0.74332380       1.21563505
C       -3.07219165       0.46868081       0.56715651
C       -2.03303564       1.29018080      -0.18256195
S       -0.30365161       1.07771468       0.42380429
S        0.22288465      -0.70412025      -0.65719345
C        1.73267628      -0.10209342      -1.52955837
C        1.59466553       1.28350971      -2.13466648
C        1.95153809       2.44317720      -1.41751039
C        1.84009289       3.70459884      -2.00829093
C        1.38607538       3.82495154      -3.32280986
C        1.03823900       2.68388511      -4.04746409
C        1.12924465       1.42106686      -3.45480720
C        3.01404891      -0.26513686      -0.72711370
C        4.22165530      -0.47731169      -1.41439206
C        5.42794444      -0.59741015      -0.72080063
C        5.45931276      -0.49420239       0.68012373
C        6.74082395      -0.62831938       1.41986547
C        7.92505092      -0.05962099       0.91212763
C        9.13044931      -0.19279403       1.60828941
C        9.16853230      -0.89387954       2.81561934
C        8.00096800      -1.46079739       3.33110739
C        6.79274710      -1.33084541       2.63947814
C        4.25625121      -0.26554411       1.36900350
C        3.04925766      -0.14728726       0.67511947
C       -2.17122253       1.16428241      -1.68905759
C       -2.02831910       2.30521894      -2.49818284
C       -2.19422714       2.21785285      -3.88354586
C       -2.47775442       0.98800877      -4.47949478
C       -2.61212907      -0.15473039      -3.68973876
C       -2.46774821      -0.06924766      -2.30251360
C       -4.40766849       0.90787244       0.55967723
C       -5.40930124       0.16549716       1.18958811
C       -6.17222742      -3.24732761       2.40085055
C       -7.17299245      -3.99625474       3.02594988
H       -8.95582565      -3.93689256       4.23099120
H       -8.97111756      -1.46614067       4.40761431
H       -7.20879811      -0.13059502       3.33055088
H       -3.49623323      -2.40487180       2.34996355
H       -1.75931859      -1.12632758       1.24783876
H       -2.25868994       2.34762187       0.07945692
H        1.82531361      -0.81916338      -2.37508360
H        2.31495458       2.37498100      -0.40061674
H        2.11200142       4.58961951      -1.44771670
H        1.30474398       4.80302115      -3.77944148
H        0.68599293       2.77775799      -5.06601995
H        0.84347510       0.54967195      -4.02923315
H        4.22947224      -0.55101213      -2.49514364
H        6.33446411      -0.78686410      -1.28187303
H        7.91617123       0.50327275      -0.01307549
H       10.03531593       0.24920435       1.21110878
H       10.10241778      -0.99741452       3.35224020
H        8.03327902      -2.00736364       4.26467177
H        5.90424037      -1.79506548       3.04899634
H        4.25053638      -0.15735018       2.44593093
H        2.15242282       0.04047032       1.24463366
H       -1.79345451       3.26529399      -2.05694546
H       -2.08857853       3.10320057      -4.49662396
H       -2.59428404       0.92089593      -5.55307221
H       -2.83518011      -1.10765500      -4.15199621
H       -2.58690688      -0.96669506      -1.70933925
H       -4.67631336       1.82626370       0.05196631
H       -6.42931868       0.52540962       1.14811005
H       -5.41114922      -3.76556668       1.83147532
H       -7.16868863      -5.07551342       2.94580732
