42
Properties=species:S:1:pos:R:3 124314=T pbc="F F F"
C        5.04465078      -1.86913145      -0.81187730
O        3.95875427      -1.49887083       0.00726238
C        2.82126049      -1.26959250      -0.79756227
C        1.65771514      -0.90369653       0.08350642
C        1.20180419      -1.78711445       0.98820291
C        0.05259893      -1.46194350       1.85089080
C       -0.69990782      -0.38607622       1.60490923
C       -0.47100500       0.45616114       0.36675942
C       -1.32284058      -0.08818706      -0.81831945
O       -1.14407891       0.67854562      -1.98506886
C       -2.80072135      -0.16841257      -0.47602543
C       -3.43949210      -1.41919812      -0.39648376
C       -4.79496798      -1.50252401      -0.06466588
C       -5.52692470      -0.34008546       0.19400016
Cl      -7.22707804      -0.44746634       0.61196609
C       -4.90128122       0.90785299       0.12215863
C       -3.54600725       0.99567651      -0.20925635
C        1.04883291       0.48939025       0.00829556
C        1.83318802       1.44032837       0.93826533
O        1.36345400       2.77087826       0.81213578
C        2.16527274       3.49507457      -0.09495331
H        5.92973286      -2.04516822      -0.16678158
H        5.30596118      -1.05709624      -1.52650370
H        4.83334230      -2.81540355      -1.35799058
H        2.54794008      -2.18332298      -1.37386245
H        3.01818850      -0.44263904      -1.51724557
H        1.67544296      -2.75533616       1.09642418
H       -0.18018589      -2.10181302       2.69212153
H       -1.53578732      -0.15921019       2.25507434
H       -0.81570031       1.48881810       0.59124821
H       -0.95409772      -1.11119269      -1.05315152
H       -1.28706290       1.63271090      -1.75290610
H       -2.88903116      -2.33205121      -0.58702726
H       -5.27440503      -2.47144117      -0.00701069
H       -5.46324502       1.81058062       0.32530332
H       -3.08061756       1.97173776      -0.25088709
H        1.16585792       0.87157493      -1.02780485
H        1.68295873       1.12510004       1.99298822
H        2.93050482       1.34528543       0.75062466
H        3.18871118       3.64208235       0.31492305
H        2.21385230       2.99755273      -1.08851188
H        1.71441356       4.49762294      -0.24316431
