38
Properties=species:S:1:pos:R:3 124473=T pbc="F F F"
C       -0.69063292      -1.54680664      -3.82380161
C       -0.03874962      -1.93274479      -2.72239997
C       -0.67136898      -1.82111670      -1.34951925
C        0.15152563      -2.57064865      -0.27361178
C        1.52612416      -1.94384016       0.05226111
C        1.48090679      -1.05783614       1.30727096
C        2.82545705      -0.35932948       1.53683918
C        2.78190362       0.52379581       2.78038015
C       -0.96089167      -0.38429004      -0.94449584
C       -0.11268305       0.67821591      -1.31447634
C       -0.37360196       1.97900796      -0.87663991
C       -1.47485799       2.24737809      -0.05763034
O       -1.69073765       3.56993952       0.35701481
C       -2.76557029       3.98451239       1.19379145
C       -2.32050328       1.18916179       0.32270488
C       -2.06092213      -0.11301408      -0.11367921
H       -1.69037683      -1.12752999      -3.76211622
H       -0.22140876      -1.64858127      -4.79686192
H        0.95424588      -2.35997285      -2.83055682
H       -1.64442847      -2.35855765      -1.42034719
H        0.31651050      -3.61124408      -0.63163225
H       -0.45765126      -2.66445833       0.65277323
H        1.91113624      -1.36394667      -0.81276987
H        2.25268977      -2.76531533       0.23785501
H        1.23909838      -1.69009901       2.18991736
H        0.68713097      -0.28936125       1.20790353
H        3.62688273      -1.11981103       1.66164766
H        3.07323131       0.27382676       0.65690278
H        3.76739089       1.01543199       2.92183474
H        2.55723513      -0.08758653       3.68024583
H        2.00546002       1.31045123       2.66756961
H        0.75810156       0.50368310      -1.93268866
H        0.28881672       2.78346504      -1.17025398
H       -2.70519390       3.46972428       2.17593256
H       -3.73763414       3.76279679       0.70475363
H       -2.69347964       5.07864321       1.36118915
H       -3.17707425       1.36063458       0.96007813
H       -2.71608055      -0.91457778       0.20461539
