42
Properties=species:S:1:pos:R:3 125629=T pbc="F F F"
C       -5.08719725       0.83130640      -0.67551873
C       -3.97906841       0.66343751       0.36273424
C       -3.05858926      -0.54293645       0.08797826
C       -2.20447312      -0.46517132      -1.19931243
O       -3.03881848      -0.61176579      -2.31960171
C       -1.36862472       0.83224879      -1.33977899
C       -0.42566818       1.15899310      -0.15068267
C        0.19046463       2.55191807      -0.37017510
C        0.67362074       0.08037025       0.01947939
C        1.59790353       0.34541716       1.22290186
C        2.44013645      -0.88314123       1.61589652
C        3.38512839      -1.40729105       0.50743348
C        4.10091167      -2.67474186       0.99208119
C        4.41991452      -0.35427880       0.08325175
H       -5.61882414      -0.13000583      -0.83963220
H       -5.82035005       1.58261605      -0.31351137
H       -4.67080467       1.19853359      -1.63594010
H       -4.45925055       0.50553989       1.35276486
H       -3.39357094       1.60292269       0.43791823
H       -3.67811579      -1.46572146       0.04827746
H       -2.38209099      -0.67095137       0.96000062
H       -1.51176159      -1.33623362      -1.17728029
H       -2.45751888      -0.85759141      -3.08646883
H       -2.06769694       1.68096528      -1.50292453
H       -0.75630298       0.75371401      -2.26539976
H       -1.02295027       1.21157198       0.78375095
H        0.73712162       2.88859738       0.53473133
H        0.88789796       2.54067409      -1.23519443
H       -0.60567748       3.30233167      -0.56344463
H        1.27907031       0.02469597      -0.91093214
H        0.19306714      -0.90634817       0.17895875
H        2.26821184       1.20439050       1.01406970
H        0.97606877       0.62093132       2.10264636
H        1.74636209      -1.69819257       1.91937908
H        3.04116007      -0.61927258       2.51403309
H        2.78591734      -1.69163029      -0.38410274
H        3.35851181      -3.45456849       1.26607732
H        4.73314317      -2.45363147       1.87902157
H        4.74553677      -3.08551428       0.18573625
H        3.92469044       0.49537059      -0.43043525
H        4.97747301       0.02625954       0.96581832
H        5.14504243      -0.79381776      -0.63460468
