55
Properties=species:S:1:pos:R:3 125739=T pbc="F F F"
C       -6.46790190       0.57761120      -2.49210598
O       -6.43160231       1.53185211      -1.43579980
C       -5.44455398       1.57862283      -0.43827740
C       -4.38331374       0.65241312      -0.39537538
C       -3.40306939       0.73034807       0.60802533
C       -2.26918794      -0.27079335       0.64776483
C       -1.09807287       0.04909615      -0.34042427
O       -1.58062635       0.07202728      -1.66564343
C       -0.39321850       1.36823034       0.03595504
O        0.69772583       1.10038825       0.89006680
C        0.91731939      -0.29459095       0.89791656
C        2.40215587      -0.59822195       0.82408903
C        2.93096598      -1.68120858       1.54110526
C        4.29091876      -1.98490483       1.46757411
C        5.15291663      -1.20783508       0.67216768
O        6.52576860      -1.48413692       0.57202502
C        7.18444958      -2.55295561       1.24385828
C        4.63717610      -0.12002596      -0.04842602
O        5.52087220       0.63725173      -0.83401369
C        5.14064526       1.76066276      -1.62215705
C        3.26353103       0.18112040       0.03216029
C        0.08624595      -0.93865439      -0.23575977
O        0.81309004      -0.97042016      -1.45095510
C       -0.32580193      -2.39797179       0.09275151
O        0.78231181      -3.25760943       0.04426568
C       -3.50398794       1.72948034       1.58795952
C       -4.55328158       2.64879690       1.55254473
C       -5.52096034       2.58092268       0.54600322
O       -6.55369626       3.51843472       0.54115448
H       -7.35046778       0.77983322      -3.13279379
H       -6.55797120      -0.44842329      -2.07699101
H       -5.55115756       0.66059928      -3.11343214
H       -4.31104278      -0.13146168      -1.13731804
H       -1.87844554      -0.34351989       1.68624244
H       -2.70291902      -1.26367745       0.40329545
H       -2.04027416       0.93959692      -1.81133130
H       -0.00199799       1.87056374      -0.87565448
H       -1.07060408       2.09471965       0.52429728
H        0.54006163      -0.66119545       1.87941516
H        2.28808996      -2.29473408       2.16021015
H        4.66221147      -2.82819076       2.03351261
H        6.75765678      -3.52657602       0.92273086
H        7.08210574      -2.43378630       2.34318541
H        8.26255277      -2.53482568       0.98367690
H        4.71876266       2.55715280      -0.97343579
H        4.39623733       1.45569824      -2.38780407
H        6.03700323       2.16116782      -2.13832260
H        2.85977381       1.01988293      -0.51763506
H        1.06057325      -0.04649389      -1.71220387
H       -0.76279215      -2.46853187       1.11089305
H       -1.10292130      -2.74066879      -0.62926635
H        0.91363054      -3.50902399      -0.90702500
H       -2.76745404       1.79922431       2.37896093
H       -4.61593426       3.41824240       2.31163309
H       -7.28149530       3.51649793      -0.16328934
