51
Properties=species:S:1:pos:R:3 125173=T pbc="F F F"
C        3.50963451      -1.33992264       0.32702997
C        2.36617515      -1.68884169       0.94385892
C        2.21825894      -3.10355585       1.45765773
O        2.05125120      -3.99150438       0.38554606
C        1.22757192      -0.68956475       1.12783331
C        1.68644446       0.52411639       1.97645859
C        0.55620548       1.51089196       2.34509618
C        0.13832659       2.42080956       1.15822374
C       -0.25350366       3.82787172       1.64243352
C       -0.96182658       1.78915519       0.25151096
C       -2.40079277       1.88142324       0.81313482
C       -2.92700152       0.51731786       0.59582850
O       -4.11959429       0.17536154       0.81310798
C       -1.88014563      -0.38401037       0.17168507
C       -2.05703155      -1.88067925       0.11984753
O       -3.00556492      -2.23065704      -0.88464801
C       -2.72705433      -2.17619748      -2.25429616
C       -3.80480387      -2.48768835      -3.23568043
O       -1.58724042      -1.83210800      -2.66839921
C       -0.75410662       0.31161239      -0.01232553
C        0.61046930      -0.30091998      -0.23983816
O        1.46601963       0.60741684      -0.93612749
C        1.28030926       0.97757548      -2.27202789
C        2.22296135       1.94568469      -2.89981792
O        0.35110292       0.47415580      -2.95933376
H        3.66644495      -0.33790112      -0.05569314
H        4.31525558      -2.05720452       0.20237177
H        1.33372306      -3.19347691       2.12149312
H        3.10490371      -3.38392741       2.07196420
H        2.95824600      -4.19843907       0.03920930
H        0.43140086      -1.19695038       1.71675900
H        2.51006946       1.07291548       1.47157898
H        2.10889597       0.13138232       2.92785096
H       -0.31990588       0.96210025       2.75379453
H        0.94415497       2.14472129       3.17298839
H        1.03142800       2.58995885       0.51821455
H       -1.02071692       3.78536677       2.44280588
H       -0.64206184       4.43383290       0.79616066
H        0.63901016       4.34665151       2.05349083
H       -0.94211228       2.31024542      -0.73194856
H       -3.00572046       2.63166309       0.25998105
H       -2.42438369       2.08955145       1.90258827
H       -1.11026663      -2.43182881      -0.04626818
H       -2.44825047      -2.21639049       1.10281804
H       -4.58041069      -3.12281924      -2.75874447
H       -4.27131209      -1.54290353      -3.58398178
H       -3.38172195      -3.03139133      -4.10658827
H        0.51145493      -1.21297100      -0.86648106
H        1.68426830       2.58303030      -3.63237169
H        2.67029974       2.59653992      -2.11950553
H        3.03124264       1.39050138      -3.41924513
