58
Properties=species:S:1:pos:R:3 126859=T pbc="F F F"
C        5.01166020      -1.49778455      -1.55267259
C        4.21704518      -0.41747980      -0.79906750
C        4.60534098       0.97354189      -1.33042542
C        4.53687646      -0.49535397       0.70446280
Si       2.35175365      -0.68060650      -1.04986224
C        1.91747545      -0.58133218      -2.86950471
C        1.84343737      -2.36600030      -0.40186440
O        1.53401926       0.59041897      -0.19045663
C        0.12872915       0.41919941      -0.15751929
C       -0.53887396       1.77089783      -0.57328041
C       -0.75529962       2.73672597       0.62081571
C        0.57771381       3.08266884       1.31242387
C        0.68763764       1.96851191       2.30075968
O        1.65584836       1.77034693       3.01697681
C       -0.52284632       1.10075564       2.25092443
C       -0.28910424      -0.06871294       1.26975517
N       -1.48720880       1.98849871       1.63248497
C       -2.89567961       1.72265242       1.57902189
O       -3.63249785       2.38376441       0.79699625
O       -3.43958001       0.71396135       2.38164236
C       -4.74333689       0.17630877       2.17689684
C       -4.76239839      -0.65183591       0.92146460
C       -5.49534495      -0.23613016      -0.20236895
C       -5.46661643      -0.99096472      -1.37897495
C       -4.70155435      -2.15868950      -1.44395992
C       -3.96599596      -2.57489302      -0.33119619
C       -3.99549194      -1.82573433       0.84802372
H        4.80861128      -1.44991148      -2.64376805
H        4.74698118      -2.51252898      -1.18676422
H        6.10342901      -1.35270981      -1.40011267
H        4.39814851       1.05320754      -2.41848565
H        5.68918154       1.16218829      -1.17423129
H        4.03542230       1.77004385      -0.80445895
H        4.30104945      -1.50324111       1.10768139
H        3.94819727       0.25769902       1.27283042
H        5.61642255      -0.29886148       0.88546248
H        0.83407197      -0.77285616      -3.00698039
H        2.15949146       0.42909210      -3.25785905
H        2.49101926      -1.34434176      -3.43307400
H        0.75590128      -2.51781199      -0.55483510
H        2.07347711      -2.43849689       0.67987289
H        2.39483756      -3.15627598      -0.95002420
H       -0.23952318      -0.33707693      -0.88943018
H        0.06943932       2.27068941      -1.35861490
H       -1.53086976       1.55428494      -1.02758626
H       -1.30221624       3.65357616       0.31009944
H        0.50194767       4.05192632       1.84976999
H        1.43692014       3.10011160       0.60778228
H       -0.85168744       0.77313734       3.26085424
H        0.48227357      -0.75221490       1.68498868
H       -1.22979299      -0.65488626       1.18835077
H       -5.00094350      -0.47208306       3.04042543
H       -5.49336378       0.99688901       2.14133160
H       -6.08260844       0.67283390      -0.17079765
H       -6.03266977      -0.66716548      -2.24260174
H       -4.67592371      -2.73860303      -2.35724197
H       -3.36907725      -3.47599621      -0.38449526
H       -3.41385454      -2.15335320       1.70041603
