29
Properties=species:S:1:pos:R:3 127470=T pbc="F F F"
O       -0.11677663      -0.31218404      -2.13733087
P       -0.29262944      -0.28968279      -0.63461636
N       -0.72217905       1.33400259      -0.10999960
C       -2.04896325       1.67892238      -0.62479107
C       -2.38817271       3.12788946      -0.28319036
Cl      -1.24799917       4.24854338      -1.07445919
O       -1.52280999      -1.38909466      -0.20623494
C       -1.25701277      -1.83167986       1.10525310
C       -0.01366413      -2.74125765       1.17571128
C        1.14973652      -2.26890498       0.28061166
N        1.19403910      -0.80095223       0.18101707
C        2.39453502      -0.36892773      -0.56347499
C        2.62945710       1.13941395      -0.44053303
Br       2.75901920       1.68060834       1.41845474
H       -0.77059796       1.31271237       0.93448542
H       -2.07820082       1.56125038      -1.73085278
H       -2.82138806       1.01509566      -0.17530127
H       -2.34964972       3.28158415       0.81620001
H       -3.41531927       3.35962290      -0.63577739
H       -1.15420144      -0.97428917       1.81019486
H       -2.13456119      -2.41181104       1.46062665
H       -0.29611068      -3.77394209       0.87611497
H        0.32929043      -2.78320371       2.23246499
H        1.04926381      -2.72537308      -0.73165455
H        2.09575110      -2.65318922       0.72271258
H        2.33294962      -0.65597433      -1.63645640
H        3.29658447      -0.86989077      -0.14652652
H        1.81718981       1.70888042      -0.93611350
H        3.58242010       1.40183137      -0.94653449
