63
Properties=species:S:1:pos:R:3 128823=T pbc="F F F"
C       -7.26214267       0.84773644      -1.54507775
C       -7.03511031       0.23254136      -0.15267733
C       -7.74263293       1.10371763       0.89617641
C       -7.61486972      -1.19039417      -0.08690982
O       -5.63821045       0.21888628       0.17618987
C       -4.62564769      -0.46859895      -0.51076538
O       -4.87202548      -1.08420611      -1.58114541
N       -3.29680601      -0.47485026       0.02253271
C       -2.89932681       0.04643375       1.20209701
N       -1.59084728      -0.17387789       1.45336254
C       -1.15716296      -0.84445933       0.36528792
C        0.23097998      -1.41215616       0.21107549
O        0.29325993      -2.66064099       0.86121657
C        0.84397603      -2.44383289       2.14240075
C        1.60219969      -1.12362975       2.16276573
C        1.31298266      -0.49684058       0.81508188
N        2.55009345      -0.38267225      -0.00902196
C        3.10411053      -1.66493586      -0.50057596
C        4.59648915      -1.54446817      -0.66364866
C        5.17856504      -1.52718022      -1.94286466
C        6.56059076      -1.37536938      -2.08576650
C        7.37007543      -1.23605327      -0.95531535
C        6.79954713      -1.25022443       0.32010839
C        5.41805447      -1.40378755       0.46767785
C        2.39916094       0.61284516      -1.09254693
C        2.69274515       1.98780801      -0.55777630
C        1.65540611       2.91269689      -0.34866766
C        1.93557170       4.17277268       0.18690360
C        3.25076348       4.51740754       0.51776711
C        4.28667702       3.60053700       0.31750719
C        4.01024496       2.33874831      -0.21781447
C       -2.20622056      -1.04647140      -0.51150559
H       -6.76435618       1.83656984      -1.61374934
H       -8.34835404       0.98566553      -1.74249200
H       -6.85856354       0.19778105      -2.34473308
H       -8.83710986       1.15107122       0.70544825
H       -7.57730735       0.69049513       1.91351541
H       -7.33586718       2.13704412       0.87666742
H       -7.18501837      -1.83719658      -0.87895424
H       -8.71778181      -1.16838710      -0.22326161
H       -7.38720830      -1.65112113       0.89653116
H       -3.55618262       0.56395267       1.89058719
H        0.40657549      -1.56668494      -0.87521115
H        0.02362581      -2.43183909       2.89409710
H        1.52946404      -3.28139393       2.39215907
H        1.21965647      -0.47843451       2.98502954
H        2.68900403      -1.28840830       2.32934354
H        0.90904447       0.52481042       0.99902176
H        2.91742146      -2.48847145       0.21962750
H        2.62485867      -1.96444488      -1.45973947
H        4.56354273      -1.62475524      -2.82854085
H        7.00391282      -1.36426496      -3.07311452
H        8.43953202      -1.11533515      -1.06588957
H        7.42890092      -1.13771973       1.19353143
H        4.98932574      -1.40637603       1.46165047
H        1.38345511       0.56381747      -1.54670871
H        3.11572033       0.42409854      -1.92217848
H        0.63006743       2.65628572      -0.58980913
H        1.13188827       4.87907063       0.34953546
H        3.46556133       5.49247583       0.93492592
H        5.30350771       3.86594639       0.58075052
H        4.82092758       1.63440603      -0.36341102
H       -2.17873394      -1.58613903      -1.45069991
