78
Properties=species:S:1:pos:R:3 129958=T pbc="F F F"
C       -9.74921738      -3.25041285       2.38318491
C       -9.26096543      -2.39382289       1.25308937
C       -9.57888528      -2.72558798      -0.07301016
C       -9.15155490      -1.90955756      -1.12542744
C       -8.41137007      -0.74833343      -0.86174158
S       -7.82987088       0.26869388      -2.17751057
O       -8.57245438       1.57431333      -2.15047725
O       -8.07061488      -0.40118982      -3.50227826
N       -6.12931189       0.56890321      -1.98377042
C       -5.39400226      -0.69548142      -2.05720732
C       -3.91191287      -0.47864542      -1.74164177
C       -3.69834882       0.04384044      -0.31305724
N       -2.28175410      -0.00727597       0.04358863
C       -1.30171509       0.86854434      -0.53124562
O       -1.65479723       1.76955151      -1.34207858
C        0.15270766       0.66383867      -0.19489066
C        1.07718458       1.82969022      -0.64380684
N        2.50901512       1.51204767      -0.46383864
C        2.88920994       1.21949733       0.92810793
C        4.41185502       1.31562886       1.10570059
C        5.18507757       0.22253351       0.35341119
N        4.75999380      -1.10857295       0.79682682
S        5.52475198      -2.32953882      -0.17404848
O        5.10531201      -2.16740826      -1.60952529
O        5.08438881      -3.68576987       0.30069444
C        7.27776818      -2.21456468      -0.03312012
C        8.05481997      -1.75554417      -1.10613797
C        9.44346226      -1.65692726      -0.97674126
C       10.06945809      -2.02495890       0.22444585
C       11.55430684      -1.88624093       0.37936201
C        9.28682202      -2.46058253       1.30418519
C        7.89904384      -2.55805949       1.17362406
C        0.74925932       3.19499440      -0.05103482
C        0.09683284       3.35286227       1.19087954
C       -0.16001075       4.63024673       1.69901136
C        0.24050189       5.76246679       0.98722861
C        0.90520479       5.62040328      -0.23278572
C        1.16102223       4.34651281      -0.74738884
C       -8.11084221      -0.40438796       0.46228942
C       -8.53817150      -1.21896987       1.51559784
H       -9.06484357      -3.17730418       3.25482127
H      -10.76252262      -2.91684288       2.68791346
H       -9.79887025      -4.31582975       2.07404669
H      -10.15267628      -3.61791888      -0.29239804
H       -9.39621962      -2.18662622      -2.14218182
H       -5.83276228       1.16549006      -2.78916307
H       -5.48248732      -1.13104864      -3.07675813
H       -5.80622211      -1.42937097      -1.33104942
H       -3.38314432      -1.45073310      -1.85639657
H       -3.47974744       0.23395378      -2.47692161
H       -4.07320346       1.08668617      -0.21717032
H       -4.26858469      -0.59001147       0.40130782
H       -1.97688334      -0.70483155       0.76069460
H        0.24323107       0.48140659       0.89530837
H        0.48322135      -0.26670307      -0.70372203
H        0.91689448       1.92358202      -1.74270963
H        2.72835260       0.67289329      -1.05072122
H        2.42966039       1.95440242       1.62179200
H        2.53956913       0.20745035       1.22545753
H        4.75902037       2.31184490       0.75420127
H        4.65149607       1.24370606       2.18942209
H        6.27158843       0.36027525       0.55096471
H        5.02122198       0.34227700      -0.73940227
H        5.09422908      -1.24830916       1.77836613
H        7.58983733      -1.46835819      -2.03985647
H       10.02963932      -1.29415809      -1.81236190
H       11.95109424      -2.67999573       1.04723257
H       11.79003229      -0.89335151       0.81568716
H       12.06290543      -1.97910542      -0.60380739
H        9.75070077      -2.72559712       2.24609367
H        7.30808234      -2.89683944       2.01468212
H       -0.21520208       2.50090233       1.77585540
H       -0.66735251       4.74209440       2.64923297
H        0.04234964       6.75034763       1.38354881
H        1.22598120       6.49809787      -0.77941075
H        1.68480097       4.25728130      -1.69175852
H       -7.54299871       0.49285173       0.67655721
H       -8.30238670      -0.93534400       2.53414041
