37
Properties=species:S:1:pos:R:3 129393=T pbc="F F F"
C       -3.35645193       1.64091426       2.12287805
C       -3.59724072       0.63811245       1.03755293
O       -4.77011239       0.21196875       0.86137884
C       -2.50693659       0.10234426       0.19298792
C       -2.47519802      -1.18609082      -0.28677419
C       -1.26688014      -1.34609539      -0.93340805
C       -0.83422417      -2.66840202      -1.49952966
N       -0.55340218      -0.18177040      -0.91010226
C        0.83046619       0.09997506      -1.37232115
C        1.31892264      -0.77470115      -2.53287138
C        1.81389573       0.06585171      -0.21897475
C        1.75230479      -0.93741529       0.76668004
C        2.68206545      -0.96193288       1.81047231
C        3.68716229       0.00535927       1.87716550
C        3.76646897       0.99789710       0.89800144
C        2.83888258       1.02710378      -0.14752333
C       -1.32329703       0.70827079      -0.22106712
C       -0.91267612       2.12161230       0.10424948
H       -4.03010038       1.43280049       2.98086318
H       -2.31115157       1.58123141       2.49056493
H       -3.57198538       2.66256655       1.74803943
H       -3.22699938      -1.94905636      -0.12758220
H       -1.59810215      -3.44680697      -1.28863327
H        0.11020175      -3.00421984      -1.02836817
H       -0.72999762      -2.60472766      -2.60059476
H        0.83396758       1.12160741      -1.80533217
H        2.23052789      -0.32033876      -2.97777212
H        1.60342069      -1.79064754      -2.19561212
H        0.54943810      -0.82207948      -3.33135773
H        0.98473043      -1.69670409       0.73821991
H        2.62366433      -1.73286696       2.56794517
H        4.40628060      -0.01605560       2.68577541
H        4.54881994       1.74419319       0.94746976
H        2.92029558       1.80057709      -0.90111351
H       -1.80189675       2.76956244       0.22484938
H       -0.31128729       2.13008801       1.03675033
H       -0.32357571       2.57787489      -0.71290610
