23
Properties=species:S:1:pos:R:3 129629=T pbc="F F F"
C       -3.25890831       0.85342263       0.60617507
O       -1.87535515       0.52612097       0.59447240
C       -1.41157094      -0.79101113       0.50476803
O       -2.22820326      -1.74990629       0.43549492
C        0.06938834      -1.07525728       0.43338409
C        0.93743493      -0.11626956       1.29873457
C        1.92467952       0.46493312       0.25788505
Br       3.51691176       1.27502379       1.02764903
C        1.11040891       1.35859056      -0.65061524
Br       1.16958236       3.27112333      -0.75066745
C        0.36164259       0.55487109      -1.41221669
Br      -0.84114962       1.11160965      -2.79689313
C        0.67175679      -0.86618747      -0.98569291
Br       0.21489416      -2.25249314      -2.27384535
C        2.16587349      -0.72183328      -0.67832836
Br       3.26408073      -0.28235007      -2.25023996
Br       3.00329058      -2.28346426       0.16880021
H       -3.37171147       1.95422415       0.68277411
H       -3.75474821       0.37828219       1.47892026
H       -3.73845665       0.50721065      -0.33384206
H        0.23705394      -2.12441403       0.76469881
H        0.35299969       0.69118885       1.79260410
H        1.48010584      -0.68341446       2.08598048
