26
Properties=species:S:1:pos:R:3 130201=T pbc="F F F"
C        2.70864056       0.93790168       0.01486801
C        1.31334822       0.50511151       0.48070584
C        1.07445038      -1.00938985       0.20461236
C       -0.34534444      -1.35101129      -0.30919196
C       -0.64326297      -2.84676959      -0.13082715
C       -1.38158740      -0.46456895       0.35096176
O       -2.39307728      -0.94114465       0.84710520
C       -1.16597408       1.03130740       0.39000889
C       -2.25967965       1.75481332      -0.40198448
C        0.22969899       1.40105031      -0.15204027
H        3.48469224       0.31072634       0.50342567
H        2.89468207       1.99761220       0.29172000
H        2.80209366       0.83353771      -1.08753295
H        1.27282887       0.66428822       1.58239469
H        1.27371209      -1.56389142       1.14881613
H        1.80402898      -1.39149873      -0.54401885
H       -0.37763836      -1.13520349      -1.40020629
H       -1.62647441      -3.09798351      -0.58310716
H        0.13570511      -3.45374494      -0.63977316
H       -0.66157929      -3.11733692       0.94690425
H       -1.22556694       1.36040245       1.45130136
H       -2.09452458       2.85279262      -0.36564585
H       -2.25702367       1.42532591      -1.46351095
H       -3.25744031       1.54115778       0.03739511
H        0.43868897       2.46732949       0.08705302
H        0.25660324       1.28918641      -1.25943323
