39
Properties=species:S:1:pos:R:3 130851=T pbc="F F F"
N        3.16412902      -1.89218429      -0.66903389
C        2.02159839      -0.97244515      -0.71760833
C        2.28940910       0.27276231       0.12727292
C        2.65421811       0.18401664       1.48667040
C        2.91072528       1.33903368       2.23129617
C        2.82728744       2.59508200       1.62873058
C        2.49806318       2.69836828       0.27659146
C        2.24112234       1.54683017      -0.47270877
C        0.69112007      -1.73928641      -0.40533968
C        0.44115971      -2.08428321       1.07956922
O       -0.73376184      -2.83851848       1.21528435
N       -0.50654254      -1.13278270      -1.02566449
C       -0.80812639       0.24459121      -0.61301505
C       -2.29482438       0.45075717      -0.64647038
C       -3.08162532       0.08580802       0.45860305
C       -4.47056361       0.24211529       0.41609369
C       -5.08327891       0.75197633      -0.73200437
C       -4.30839274       1.10172157      -1.84144450
C       -2.91902857       0.94678826      -1.80319853
H        4.03027846      -1.37302303      -0.94344232
H        3.30499795      -2.24844301       0.30244264
H        1.94008341      -0.65351299      -1.78095751
H        2.74626492      -0.77343328       1.97890171
H        3.18033794       1.25904465       3.27650891
H        3.02762788       3.48769830       2.20712342
H        2.44655946       3.67181156      -0.19378031
H        2.00276386       1.65296571      -1.52349448
H        0.80874959      -2.72947766      -0.90301897
H        1.30111296      -2.65773513       1.49175144
H        0.32956870      -1.16971984       1.69284711
H       -0.51978639      -3.75867539       0.90986560
H       -0.40346272      -1.15673738      -2.06797050
H       -0.31742292       0.96455241      -1.30279948
H       -0.44400302       0.46760745       0.41031939
H       -2.61941799      -0.31986593       1.35028799
H       -5.07225031      -0.03565235       1.27182757
H       -6.15856766       0.87108545      -0.76387642
H       -4.78475547       1.48922898      -2.73273265
H       -2.33136697       1.21193077      -2.67342702
