50
Properties=species:S:1:pos:R:3 131637=T pbc="F F F"
O       -2.97486810       1.83645084       0.64388591
C       -3.59803675       0.95144321      -0.00392711
O       -3.56787014      -0.38802945       0.40006657
C       -2.78464072      -0.87188308       1.49216998
C       -1.43002876      -1.44954701       1.01762214
C       -1.59297646      -2.67044411       0.08693039
O       -2.23794130      -2.30624055      -1.10316294
C       -0.54206047      -0.39462730       0.39819555
O       -0.78062908       0.16969239      -0.70352925
N        0.64046116      -0.14215239       1.15896100
C        1.67349757       0.79762351       0.81752704
O        2.73558848       0.85402664       1.49409201
O        1.49412275       1.65361256      -0.27587568
C        2.49047459       2.56631413      -0.73079874
C        3.61132335       1.82330073      -1.40462878
C        4.88155891       1.74837094      -0.80898919
C        5.91062134       1.03714947      -1.43419558
C        5.67846914       0.39510798      -2.65393287
C        4.41563241       0.46036080      -3.24915434
C        3.38358020       1.16984026      -2.62688755
C        0.57012708      -1.04403229       2.26101587
C        1.49173312      -1.19663981       3.30622750
C        1.22734939      -2.14968697       4.30186849
C        0.05939000      -2.93027583       4.24876895
C       -0.85646474      -2.76224439       3.20062703
C       -0.58267803      -1.81024306       2.21256355
C       -4.36196841       1.32041436      -1.19881933
C       -4.48281609       2.59017593      -1.72862573
C       -5.28411200       2.45131738      -2.84135887
C       -5.60058528       1.10998233      -2.92130659
O       -5.03643181       0.46203606      -1.92811913
H       -3.36246505      -1.67725688       1.99416594
H       -2.62995264      -0.07147087       2.25060246
H       -0.59127320      -3.09579970      -0.15340690
H       -2.18764577      -3.45712000       0.60383706
H       -2.30885416      -3.13549011      -1.64369940
H        2.85852114       3.18232147       0.11893457
H        2.02736810       3.26056312      -1.46348126
H        5.07487846       2.23650631       0.13817451
H        6.88778489       0.98205487      -0.97226073
H        6.47612194      -0.15511002      -3.13609321
H        4.23588862      -0.04048379      -4.19188896
H        2.40738708       1.20883927      -3.09460470
H        2.39091331      -0.60429030       3.37098664
H        1.92595016      -2.28315070       5.11751864
H       -0.13587423      -3.66147662       5.02236805
H       -1.75907702      -3.35787813       3.16199428
H       -4.04231402       3.50491999      -1.35397271
H       -5.59971562       3.23519865      -3.51645343
H       -6.21746334       0.64795016      -3.67993114
