49
Properties=species:S:1:pos:R:3 131148=T pbc="F F F"
C        3.50135500       2.42135291      -1.30712610
C        3.91930325       1.50227547      -0.19371084
C        5.05514202       1.81345344       0.56927846
C        5.44927723       0.98415041       1.62204905
Cl       6.87182614       1.38486171       2.56733120
C        4.71083383      -0.16214401       1.92500135
C        3.57004946      -0.48923296       1.17653848
C        2.76045491      -1.70462547       1.53475327
C        3.15712521       0.36098626       0.13169522
O        1.99713304       0.05609633      -0.58382756
C        0.74390406       0.65060326      -0.26166806
C       -0.37883097      -0.10899329      -0.98087375
C       -0.50122469      -1.52644364      -0.45695928
C       -0.96314734      -1.78079036       0.84839515
C       -1.03783962      -3.09094873       1.32981596
C       -0.65089022      -4.15911212       0.51773790
C       -0.18719580      -3.91899091      -0.77752517
C       -0.11003599      -2.61051580      -1.26372201
N       -1.67037841       0.58952676      -0.90208806
C       -2.24842448       1.31526252       0.19492798
O       -1.61797856       1.69705105       1.21577162
C       -3.66755144       1.54638447      -0.04600879
C       -4.62644821       2.20041118       0.72590092
C       -5.94311726       2.25654716       0.23460909
C       -6.27070724       1.66131635      -1.00314041
C       -5.28458359       1.00469616      -1.76108176
C       -3.98705807       0.96682208      -1.25332001
C       -2.77327598       0.36264327      -1.78699655
O       -2.69570124      -0.29205070      -2.86042647
H        2.77771889       3.16788048      -0.91892067
H        3.03063896       1.85001782      -2.13485036
H        4.37900001       2.95814783      -1.72626283
H        5.63488277       2.70100691       0.34611918
H        5.02473922      -0.79469354       2.74644089
H        3.34337179      -2.40491339       2.16998414
H        1.85043974      -1.39343616       2.08881008
H        2.45811280      -2.25095445       0.61634876
H        0.59589935       0.61554307       0.83879681
H        0.74464754       1.71235684      -0.58758072
H       -0.09129793      -0.14017085      -2.05601127
H       -1.25495492      -0.96878306       1.49956533
H       -1.39187667      -3.27764033       2.33540162
H       -0.70763140      -5.17263800       0.89312661
H        0.11626958      -4.74725627      -1.40466873
H        0.26040856      -2.44476124      -2.26759880
H       -4.36717030       2.65057213       1.67527256
H       -6.71041383       2.75767337       0.81019848
H       -7.28757018       1.70892680      -1.37042496
H       -5.52722900       0.54252927      -2.70907701
