80
Properties=species:S:1:pos:R:3 131900=T pbc="F F F"
C        0.85525063      -2.79247162       0.76428512
C        0.45314132      -1.68490875       1.39588689
C       -1.00623734      -1.37988572       1.60413269
C       -1.61832725      -0.48134167       0.48891374
C       -3.14511692      -0.49457552       0.66162465
C       -3.71913940       0.03220383       1.83384428
C       -5.11098571       0.01055067       2.03492628
O       -5.70527682       0.53947569       3.19262998
C       -4.99297524       1.17646731       4.24702403
C       -5.94404700      -0.55259849       1.05938796
O       -7.32884328      -0.56568959       1.29341055
C       -8.29383214      -1.11592169       0.40031808
C       -5.38078773      -1.08436039      -0.11390851
C       -3.99343211      -1.07871233      -0.31341895
C       -3.44953395      -1.61556388      -1.61626250
C       -2.01315012      -2.08980861      -1.45832187
N       -1.24596389      -1.02722676      -0.81829513
C       -0.37240570      -0.14839909      -1.50998992
O       -0.00652099      -0.34726882      -2.70049059
C       -0.06984252       1.09806086      -0.74860945
S        1.71004895       1.23709407      -0.27982570
O        2.12755226       2.62444377      -0.74813044
C        2.69147666       0.08569903      -1.29458494
C        4.24123099       0.13652653      -1.13133915
C        4.90804066       1.44225580      -1.66199177
C        6.32170914       1.37866096      -1.04965583
C        6.29504745       0.05346323      -0.25127086
C        6.34255214      -1.08166281      -1.29806828
C        4.94437365      -1.01057024      -1.94420461
O        4.28849863      -2.24719807      -1.82811568
C        4.85611548      -0.00488473       0.29106826
C        4.56270492       1.14766354       1.30266869
C        4.53527720      -1.32341776       1.04938905
C       -0.98683261       0.96945856       0.51011002
C       -1.93961589       2.19834314       0.33555127
C       -2.80091445       2.01627273      -0.88885178
C       -2.00746704       2.13705727      -1.94805137
C       -0.61674050       2.39457046      -1.42530540
C       -0.97540980       3.23488994      -0.21023468
H        1.91074181      -2.98758442       0.61833542
H        0.13650086      -3.51532547       0.39144995
H        1.18814398      -0.97462645       1.75779577
H       -1.57417217      -2.33640093       1.67573261
H       -1.11212669      -0.88331599       2.59275757
H       -3.07213053       0.46827296       2.58303315
H       -4.45355242       2.06591497       3.85991249
H       -5.71465103       1.50955057       5.02137251
H       -4.27831613       0.46387409       4.70869864
H       -8.27016336      -0.57504283      -0.56976305
H       -9.30371490      -1.00114528       0.84313970
H       -8.09395957      -2.19713054       0.24251949
H       -6.01808988      -1.50872760      -0.87902743
H       -4.06771699      -2.46621667      -1.97521628
H       -3.48905210      -0.80777608      -2.37915435
H       -1.99117709      -2.99918024      -0.82049534
H       -1.58675397      -2.35128405      -2.45035036
H        2.45165782       0.26796185      -2.36431871
H        2.33339703      -0.93207792      -1.03274368
H        4.40324468       2.36527960      -1.33279391
H        4.95131666       1.48132746      -2.77378707
H        6.50934532       2.24267436      -0.37390700
H        7.10961554       1.38457512      -1.83635414
H        7.09225575      -0.01926545       0.51849345
H        6.53733092      -2.06281836      -0.81297845
H        7.14737045      -0.92513415      -2.05127724
H        5.04989280      -0.75264531      -3.02549356
H        3.61907775      -2.29174049      -2.55996007
H        3.57864075       1.00234591       1.79688829
H        4.55342422       2.16143728       0.86306174
H        5.33441650       1.14363002       2.10143754
H        5.13045111      -1.37391771       1.98608067
H        4.74773428      -2.25568680       0.50025392
H        3.46562438      -1.34399858       1.32695848
H       -0.40375805       1.12492701       1.44732340
H       -2.48532246       2.51345025       1.24883218
H       -3.88038790       1.91805250      -0.91847191
H       -2.33116047       2.14136395      -2.98168892
H        0.05384708       2.87801149      -2.16666350
H       -0.11831996       3.44043409       0.47100576
H       -1.46912571       4.20126702      -0.47688187
