98
Properties=species:S:1:pos:R:3 131888=T pbc="F F F"
C       -6.42672030       2.75329936      -2.90679941
C       -6.06949455       1.87948531      -1.96085208
C       -6.52747735       2.04013281      -0.53090524
O       -7.91856046       1.76173508      -0.48255884
C       -8.64740039       2.86032114       0.02202458
C      -10.08970903       2.46227381       0.13375876
C      -10.96663540       2.66666812      -0.94183997
C      -12.29779751       2.24209384      -0.85862431
C      -12.76712402       1.59637686       0.30261894
O      -14.09343254       1.15362087       0.43829922
C      -15.10390623       1.33145377      -0.54699957
C      -11.88171519       1.37682014       1.36413636
C      -10.55208340       1.80134122       1.28164329
C       -5.78207074       1.04594924       0.38183993
C       -6.19042679       1.22721778       1.84844645
O       -4.37095530       1.24026328       0.25116516
C       -3.42761330       0.27745369       0.62620669
O       -3.79343206      -0.84930257       1.06183685
C       -1.96838660       0.56434306       0.46802387
C       -1.37642299      -0.19096501      -0.74090605
C       -1.72588714       0.51032492      -2.05438436
O        0.04571504      -0.27436210      -0.62334145
C        0.68792481      -1.11393820       0.29620635
O        0.01553820      -1.86942160       1.05215913
C        2.15663817      -1.10301628       0.37401151
C        2.81052694      -1.65960718       1.39846911
C        4.31789210      -1.67883445       1.50119937
O        4.84515015      -2.32027129       0.35106352
C        5.19375038      -3.66001661       0.62294426
O        5.71931426      -4.22490606      -0.55889866
C        6.27220552      -5.50198212      -0.30014614
C        7.77199118      -5.39494249       0.00707503
O        8.42441214      -4.55666377      -0.93030017
C        8.93738295      -5.32181531      -1.99529739
C        4.95476120      -0.26796283       1.63754735
C        4.21332192       0.57635931       2.68982789
O        4.93023777       0.37934530       0.37888799
Si       6.34309370       1.35562762       0.04336716
C        6.57593093       2.71463121       1.31104379
C        5.93548959       2.22992875      -1.56328172
C        7.97101311       0.35735555      -0.17170639
C        7.65815353      -1.09312352      -0.56982496
C        8.82525589       1.00332157      -1.27912041
C        8.78384965       0.36318345       1.13854263
H       -7.04935106       3.61047211      -2.67433586
H       -6.08601077       2.61084817      -3.93032978
H       -5.42652887       1.04617781      -2.24070772
H       -6.25339766       3.07573878      -0.20459679
H       -8.27285236       3.16066006       1.02792401
H       -8.55177787       3.73723792      -0.65793862
H      -10.61940846       3.15269316      -1.84541123
H      -12.94974675       2.41107410      -1.70457897
H      -16.05693254       0.91322185      -0.16171390
H      -14.82778712       0.79649300      -1.48022231
H      -15.25072065       2.41183826      -0.75313451
H      -12.22408316       0.86820898       2.25538842
H       -9.88192299       1.61103566       2.11066999
H       -6.04657051       0.01362347       0.06100470
H       -5.98346077       2.26657082       2.18110646
H       -7.27070324       1.00808290       1.97845408
H       -5.62321099       0.52801253       2.49631368
H       -1.45949966       0.25355361       1.40369415
H       -1.80681739       1.65836090       0.36139057
H       -1.79242002      -1.22232682      -0.78665861
H       -1.30433963      -0.06252750      -2.90829826
H       -2.82842826       0.57163596      -2.17886973
H       -1.29768025       1.53507467      -2.07177699
H        2.70490005      -0.61203197      -0.41805630
H        2.25257499      -2.13177861       2.19860808
H        4.56511283      -2.21762643       2.45110808
H        5.95698922      -3.68799297       1.43887435
H        4.28443759      -4.22800236       0.93327214
H        6.14236247      -6.12357246      -1.21077457
H        5.75303224      -6.05219756       0.52258167
H        7.89961297      -4.94224383       1.01220190
H        8.21942688      -6.41359907       0.08182722
H        9.39619799      -4.63259191      -2.73567632
H        9.73261733      -6.01612216      -1.64204756
H        8.13426584      -5.88486968      -2.51980894
H        5.98905506      -0.43504071       2.00856256
H        3.22941139       0.91638438       2.29854528
H        4.80380892       1.47099094       2.96378449
H        4.05214785      -0.01686636       3.61720919
H        5.62720677       3.27894916       1.43079955
H        7.36830244       3.40802688       0.95967120
H        6.88159255       2.28077348       2.28533151
H        4.96622558       2.76294940      -1.45571145
H        5.85062581       1.48178633      -2.38104738
H        6.72762566       2.96600400      -1.80923397
H        8.58526616      -1.62349320      -0.87584573
H        6.93776282      -1.12924076      -1.41596741
H        7.24017321      -1.64488915       0.29291851
H        8.31961953       0.92836482      -2.26589553
H        9.80679768       0.48871682      -1.36928807
H        9.01939684       2.07422723      -1.05587271
H        9.69830795      -0.26034067       1.03009051
H        9.10890867       1.39385063       1.39977500
H        8.19758786      -0.04408027       1.98613385
