50
Properties=species:S:1:pos:R:3 133381=T pbc="F F F"
C        2.23895730       0.41073836       2.68513936
C        2.51639099      -0.00029593       1.26004681
C        1.50808258      -0.03549792       0.36175079
O        0.21357369       0.29899817       0.79988944
C       -0.97051818       0.29151838      -0.00017908
C       -1.10158675       1.64591302      -0.71711120
C       -2.30161006       1.65769548      -1.69407311
C       -2.77618392       3.09590807      -1.93960543
C       -3.46783515       0.75406438      -1.21829797
C       -3.52221647       0.63389782       0.31183501
C       -2.20916035       0.04967546       0.91596948
C       -2.38395186      -1.43382545       1.38188232
C       -2.73636266      -2.41512905       0.25046688
C       -1.16680872      -1.94962966       2.16474979
C        1.75747905      -0.50924370      -1.05917283
C        3.19090847      -0.22287599      -1.51145332
C        4.20054554      -0.85084218      -0.54046835
C        5.62931838      -0.45413703      -0.93543399
C        3.88496837      -0.44332733       0.88052341
O        4.77419551      -0.55589765       1.76847689
H        1.56117973       1.29045269       2.71576536
H        3.17120647       0.69957452       3.21340546
H        1.76570860      -0.43378517       3.22858910
H       -0.91456689      -0.51383041      -0.75992644
H       -1.21994434       2.43986332       0.05451406
H       -0.17232589       1.88023653      -1.27822211
H       -1.94859391       1.25801528      -2.67135259
H       -3.56264675       3.11145323      -2.72403740
H       -3.19047836       3.53622453      -1.00740327
H       -1.92862518       3.72377576      -2.28867632
H       -4.44398836       1.13259556      -1.59302780
H       -3.33646837      -0.25875187      -1.65483011
H       -4.40682117       0.02735501       0.60270875
H       -3.69586329       1.65039348       0.72980120
H       -2.03083779       0.63749661       1.84606638
H       -3.23763244      -1.44960691       2.09640510
H       -2.90372462      -3.42899133       0.67286632
H       -1.92125569      -2.48981919      -0.49728376
H       -3.67571625      -2.11619433      -0.25619281
H       -0.30406297      -2.12739292       1.48889258
H       -0.87291320      -1.22325644       2.95201670
H       -1.41667698      -2.91084775       2.66267540
H        1.07824317      -0.00267639      -1.77252643
H        1.55824539      -1.60130416      -1.11263462
H        3.34232087       0.87897404      -1.56254672
H        3.34055473      -0.63997189      -2.53138826
H        4.11591755      -1.95803581      -0.60710842
H        6.36735341      -0.97828654      -0.29151288
H        5.82991887      -0.74425202      -1.98896753
H        5.77430789       0.64288530      -0.83100386
