47
Properties=species:S:1:pos:R:3 134566=T pbc="F F F"
N       -5.60589670       1.89091266       1.77675472
C       -5.33409673       1.19253238       0.89496294
C       -4.98726812       0.30471409      -0.22674705
C       -5.88861338      -0.92941080      -0.25527839
C       -5.06986929      -2.05520392       0.36993437
C       -3.61169997      -1.63294585       0.23828056
N       -3.63530977      -0.20728677      -0.05217041
C       -2.45860631       0.59162405      -0.28693024
O       -2.58670861       1.79518371      -0.64339126
C       -1.07603490       0.00423750      -0.19351742
N       -0.12414294       1.02938592       0.26701624
C        1.31140101       0.71129502       0.05804725
C        2.15837482       1.74842916       0.85493961
C        3.66693755       1.49667068       0.65384936
C        4.01188252       1.62023228      -0.84327428
C        3.19868534       0.58302769      -1.64268926
C        3.54613886      -0.83782411      -1.14593194
C        3.20751789      -0.97248656       0.35893765
O        3.54503189      -2.27100264       0.78157934
C        4.02108378       0.08083952       1.15340194
C        1.68917777      -0.71647241       0.55886890
C        1.68890566       0.84390455      -1.44642070
H       -5.07356793       0.86333340      -1.18435258
H       -6.11343831      -1.19173909      -1.31300160
H       -6.85240857      -0.78301188       0.28187206
H       -5.25900506      -3.02455259      -0.14008232
H       -5.33554751      -2.15074101       1.44571705
H       -3.07193871      -1.82754676       1.18999674
H       -3.12337859      -2.17819588      -0.59817717
H       -1.07249578      -0.84701488       0.51820796
H       -0.81298613      -0.37648350      -1.19911499
H       -0.30057651       1.17237604       1.28984119
H        1.90588304       2.78015536       0.52410359
H        1.92096207       1.68715234       1.94040085
H        4.24847372       2.24871832       1.23033527
H        3.78038797       2.64646476      -1.20458436
H        5.10045457       1.45143517      -0.99798424
H        3.45130226       0.66954043      -2.72208855
H        2.97710706      -1.59117584      -1.73460091
H        4.62781666      -1.03928054      -1.31221553
H        3.31920078      -2.34308100       1.74632291
H        5.11067053      -0.10324830       1.02632785
H        3.79610770       0.00173557       2.23977828
H        1.12821784      -1.49324535      -0.00462740
H        1.42131306      -0.82093459       1.63377153
H        1.43081198       1.86149520      -1.81533557
H        1.12974347       0.11748847      -2.07073204
