14
Properties=species:S:1:pos:R:3 134947=T pbc="F F F"
C       -2.19725128       0.31409637      -0.09365082
O       -0.83027823       0.40022466      -0.42693619
C       -0.12505806      -0.64576821       0.21306245
C        1.37460424      -0.58233432      -0.10058350
C        2.02808259       0.73890464       0.03472589
O        1.67587764       0.20991206      -1.22543197
H       -2.35365056       0.44117118       1.00072543
H       -2.73844358       1.13526410      -0.60688782
H       -2.63750423      -0.64720192      -0.44074996
H       -0.49643724      -1.63460694      -0.13867683
H       -0.24167427      -0.58676504       1.31902001
H        2.02181657      -1.48041918      -0.01446261
H        1.39168517       1.60957503       0.29961452
H        3.12823125       0.72794758       0.18023140
