33
Properties=species:S:1:pos:R:3 134305=T pbc="F F F"
C        3.31610804       0.36690240      -0.18020084
C        1.94602156      -0.27531777       0.10735357
C        2.01493313      -1.76278314      -0.28156137
C        0.79423390       0.49215365      -0.63048951
C        0.40769426       1.82507643       0.05697182
O        1.25899277       2.65795218       0.32350353
C       -1.06822149       2.14725505       0.34589406
C       -1.98609370       0.98211506      -0.13061884
C       -1.51483214       0.61486390      -1.54510956
C       -0.51484138      -0.34739217      -0.87255990
C       -1.45350487      -0.38275867       0.36666898
C       -2.51690731      -1.50359894       0.24124204
C       -0.85350373      -0.44960725       1.79637104
H        4.12146475      -0.19067161       0.34447999
H        3.53420655       0.35765464      -1.26978459
H        3.35768604       1.41132805       0.18510611
H        1.79760408      -0.22773488       1.20414151
H        2.89471233      -2.24942908       0.19145526
H        1.11655113      -2.30528215       0.07892538
H        2.09650370      -1.87482332      -1.38408520
H        1.17934499       0.75094350      -1.64261331
H       -1.34952321       3.07530297      -0.19669232
H       -1.21886776       2.33496463       1.42985602
H       -3.07841444       1.15793162      -0.02256126
H       -1.07779924       1.44646887      -2.14501468
H       -2.29632501       0.08286091      -2.13020372
H       -0.39270957      -1.29886233      -1.43379323
H       -2.04521421      -2.49290542       0.42331086
H       -3.32157603      -1.35142898       0.99196482
H       -2.99495121      -1.54042607      -0.75870536
H       -1.67400197      -0.41105499       2.54404738
H       -0.16542761       0.37017412       2.06110318
H       -0.31334236      -1.40987120       1.93159813
