51
Properties=species:S:1:pos:R:3 134457=T pbc="F F F"
C        4.71073721      -1.84036285      -1.26583294
O        5.45607900      -1.06842258      -0.35595323
P        4.49393764      -0.77324958       1.02513042
O        4.19130988      -2.07753703       1.73438086
O        5.33392615       0.26609320       2.08545954
C        6.50592372      -0.38630311       2.50578344
C        2.95177579       0.03739152       0.55904085
C        1.85212233      -0.68999790       0.33244222
N        0.63450975      -0.09798359      -0.16859854
C       -0.39727141      -0.99161427      -0.63262600
O       -0.53507924      -2.12531833      -0.09925441
O       -1.24999225      -0.59493578      -1.67126170
C       -2.31945398      -1.39795467      -2.16454118
C       -3.41555643      -1.50448033      -1.13868205
C       -4.18407616      -0.37391363      -0.81667290
C       -5.18614818      -0.45969975       0.15416353
C       -5.43060800      -1.67520105       0.80504990
C       -4.67407341      -2.80668893       0.48397557
C       -3.66664162      -2.72308233      -0.48171049
C        0.56996057       1.34370385      -0.51133456
C       -0.81635564       1.91405018      -0.27081578
C       -1.49170073       1.67446603       0.94252277
C       -2.76005357       2.21775236       1.16568060
C       -3.35990384       3.01748290       0.19035335
C       -2.69217331       3.27489262      -1.01064611
C       -1.42509366       2.72835018      -1.24154669
C        1.58805160       2.17543272       0.29246102
C        2.91275003       1.48881801       0.34539914
O        3.97671668       2.15830515       0.26382550
H        4.33907718      -2.78342820      -0.80267490
H        3.87865967      -1.24706117      -1.69984513
H        5.37624793      -2.13060734      -2.10535241
H        6.26434244      -1.26781796       3.13715189
H        7.15068028      -0.67920619       1.64743683
H        7.09282665       0.31652668       3.13191506
H        1.89899334      -1.76367686       0.47079730
H       -1.93645883      -2.39804747      -2.46096320
H       -2.73020241      -0.91462514      -3.07655170
H       -4.00483115       0.57001929      -1.31965711
H       -5.77484350       0.41598579       0.39849422
H       -6.20887916      -1.74173668       1.55576590
H       -4.86575910      -3.74929467       0.98433124
H       -3.08157588      -3.60523179      -0.71158119
H        0.83221710       1.44132224      -1.58904785
H       -1.03822850       1.05881686       1.71000470
H       -3.27880636       2.00877577       2.09080224
H       -4.34341847       3.43482706       0.36255656
H       -3.15887173       3.89338743      -1.76726413
H       -0.92192758       2.93677689      -2.17825670
H        1.23884642       2.31485449       1.33879503
H        1.69829274       3.17944798      -0.17304878
