52
Properties=species:S:1:pos:R:3 134760=T pbc="F F F"
C       -3.68549954       2.93193273       1.23640261
N       -3.91344786       1.95555601       0.16906861
C       -3.29908774       2.13895380      -1.15290232
C       -2.07248695       1.24245992      -1.30474884
O       -1.10587739       1.58278205      -0.31356517
C        0.12763548       0.93644717      -0.15138434
C        0.97969256       1.37895570       0.86693478
C        2.21899760       0.76681859       1.07232408
C        2.62217130      -0.30552546       0.26136915
C        3.97251696      -0.94896404       0.46051858
C        5.01805423      -0.41473214      -0.53128006
O        6.21803709      -1.14590011      -0.34952841
C        6.96220229      -1.19046034      -1.55102712
C        8.32057302      -1.82483407      -1.27989005
F        9.01840926      -1.06481910      -0.35793763
F        9.04621184      -1.88838865      -2.45552291
F        8.15208393      -3.10475812      -0.78197968
C        5.27674722       1.04655411      -0.28033784
O        4.80008810       1.91424876      -1.06079847
O        6.01431890       1.44240443       0.83160475
C        1.77408692      -0.74598175      -0.76637027
C        0.53430444      -0.13310001      -0.97166987
C       -4.73850985       0.80889665       0.43832356
N       -5.05467666      -0.12148317      -0.50316166
C       -5.82033484      -0.97374450       0.19880697
C       -6.44022478      -2.13745513      -0.25107144
C       -7.19986310      -2.87358026       0.67917832
C       -7.31560322      -2.43255734       2.01854416
C       -6.67466265      -1.25036292       2.43781316
C       -5.93585238      -0.54981531       1.48854705
O       -5.26137665       0.55865793       1.62904591
H       -4.65237623       3.38444724       1.54190776
H       -3.22386993       2.42784796       2.11206300
H       -3.00273691       3.74390198       0.90723388
H       -2.99336121       3.19748467      -1.30211439
H       -4.03762236       1.90441178      -1.94978984
H       -1.63741221       1.39394815      -2.31567286
H       -2.37062028       0.17798069      -1.19302797
H        0.67954383       2.20298219       1.50156249
H        2.86501294       1.13045515       1.86140369
H        4.32631760      -0.79222561       1.50431733
H        3.87181422      -2.04783971       0.32125944
H        4.60004676      -0.55034886      -1.55936555
H        7.12889112      -0.16733926      -1.96131685
H        6.42939861      -1.80825812      -2.30937686
H        6.18502304       2.42284679       1.01980805
H        2.07490898      -1.56345228      -1.41005844
H       -0.09730767      -0.49517625      -1.77131239
H       -6.33978078      -2.46701213      -1.27693454
H       -7.69528544      -3.78431797       0.36796144
H       -7.89756881      -3.00789840       2.72668233
H       -6.75164283      -0.90064345       3.45946470
