30
Properties=species:S:1:pos:R:3 136701=T pbc="F F F"
C       -2.70906564       1.32826434      -0.61473903
C       -2.32830693       0.13723520      -0.12167590
C       -3.39154283      -0.83397444       0.32262277
C       -0.85461702      -0.23566138      -0.01658948
C       -0.18728395      -0.26246916      -1.40370033
C        1.26152512      -0.77541577      -1.31652827
C        2.07324869      -0.20266981      -0.10409303
C        2.29920328      -1.31416690       0.94364091
O        3.34857022       0.20191328      -0.54746162
C        1.34629614       1.01636552       0.54207003
O        2.08493537       1.49806951       1.63646790
C       -0.09876845       0.68339109       0.98186177
H       -3.76095749       1.58778267      -0.69060834
H       -1.97854709       2.06082569      -0.94273676
H       -4.00346479      -0.37680919       1.12887329
H       -2.95302042      -1.77570735       0.71259002
H       -4.05069299      -1.08634301      -0.53486914
H       -0.78720012      -1.27314257       0.37804308
H       -0.76399348      -0.92509976      -2.08608487
H       -0.18604948       0.75582667      -1.84984738
H        1.76437757      -0.51807232      -2.27441182
H        1.23732417      -1.88749727      -1.28467269
H        1.34025123      -1.72205785       1.32290983
H        2.87549550      -2.15096866       0.49336163
H        2.88578156      -0.93072098       1.80526696
H        3.22936390       0.94138055      -1.19999330
H        1.28699154       1.82200642      -0.22826823
H        1.73565551       2.40429061       1.84353377
H       -0.07927900       0.18775883       1.97750123
H       -0.63623012       1.64566606       1.12753702
