25
Properties=species:S:1:pos:R:3 137713=T pbc="F F F"
C        1.86003968       2.00920334      -0.46368932
C        1.71524882       0.52121773      -0.27711319
C        2.87680687      -0.26869825      -0.20653455
C        2.78917598      -1.64756260      -0.01147249
F        3.91819528      -2.39479643       0.06202154
C        1.54255688      -2.25566905       0.12012994
C        0.37820086      -1.49075646       0.04192593
C        0.44089244      -0.10044621      -0.18622568
C       -0.84605633       0.71016701      -0.23850165
C       -1.38245105       1.03536151       1.17252890
O       -2.68897438       0.48882211       1.16303467
C       -2.91245700      -0.11773905      -0.05467610
N       -4.12912814      -0.78396405      -0.37881041
N       -1.92496987      -0.03935471      -0.87565849
H        1.51245726       2.29464653      -1.47856441
H        1.26361195       2.54951389       0.30129822
H        2.91647545       2.33510723      -0.35506524
H        3.85642025       0.18508555      -0.29430470
H        1.47625443      -3.32328100       0.28629457
H       -0.57525055      -1.98898602       0.16278592
H       -0.71016378       1.65032375      -0.81313425
H       -1.43347012       2.13301311       1.33646429
H       -0.78493053       0.55936655       1.98043147
H       -4.90378427      -0.82640403       0.31935336
H       -4.25470015      -1.23417047      -1.31251835
