35
Properties=species:S:1:pos:R:3 137057=T pbc="F F F"
C       -0.17680358      -1.24861901       2.41489007
C        0.55040052      -1.56674534       1.09828292
C        0.73461933      -0.38753264       0.06036332
C        0.91686026      -1.05770434      -1.34903315
C        2.27498893      -1.74940487      -1.53473454
O        1.94817393       0.35206774       0.25353440
C        2.22209865       0.76980295       1.57469710
C       -0.49101982       0.62457653       0.09185334
C       -0.37940881       1.87173493      -0.78357767
C       -1.81027093       2.38586217      -0.86920521
C       -2.68814625       1.27694251      -0.28063266
N       -1.84779666       0.07835311      -0.10718493
N       -1.92065421      -0.71838405      -1.27274815
H       -0.13759283      -2.14172198       3.07371865
H        0.28245265      -0.40761790       2.96590215
H       -1.24677472      -1.02221194       2.22986029
H        1.54121138      -2.00524695       1.34240133
H       -0.03610235      -2.38929118       0.63372443
H        0.15481359      -1.83975606      -1.53768109
H        0.82790754      -0.31149360      -2.16107953
H        3.10754903      -1.01749305      -1.47513715
H        2.42515288      -2.54380392      -0.77529244
H        2.31143079      -2.22373633      -2.53840820
H        3.12584114       1.41184098       1.54630809
H        1.41783253       1.39689000       2.00384644
H        2.47739989      -0.08790028       2.22933088
H       -0.50823534       1.03130860       1.12478441
H        0.29374452       2.62847675      -0.32377643
H       -0.01445873       1.64190909      -1.80308981
H       -2.08910186       2.58307354      -1.92756387
H       -1.92643433       3.32342559      -0.28253313
H       -3.57543528       1.08148138      -0.92451367
H       -3.06565993       1.59266473       0.71664947
H       -2.84840680      -1.20086738      -1.27577162
H       -1.85017512      -0.13087979      -2.13818405
