22
Properties=species:S:1:pos:R:3 137059=T pbc="F F F"
C       -4.59332717      -0.21803162       0.07934403
C       -3.33860052      -0.62022034       0.27330646
C       -2.20379011       0.31500983       0.31214464
O       -2.38559915       1.55519917       0.16182797
O       -0.91743574      -0.19298808       0.51965389
C        0.24770871       0.62960197       0.55674732
C        0.63388504       1.12404028      -0.85766740
C        1.98971255       0.54262889      -1.08158277
O        2.63790002       0.67467932      -2.15362932
N        2.47382610      -0.19307891       0.02737983
C        3.58258170      -1.13988548      -0.00350813
C        1.42576428      -0.18497691       0.98009144
O        1.48662672      -0.81146334       2.07156372
H       -5.39510706      -0.94467841       0.05854644
H       -4.83786591       0.82746574      -0.05996689
H       -3.14271826      -1.67672582       0.40751731
H        0.10897405       1.47964497       1.26078086
H       -0.06999373       0.75178363      -1.63293082
H        0.68477309       2.23339183      -0.88744882
H        3.96214230      -1.31460790       1.02512943
H        3.23878988      -2.10237208      -0.43673242
H        4.41175321      -0.73441676      -0.62056677
