28
Properties=species:S:1:pos:R:3 138109=T pbc="F F F"
C       -0.55272136      -2.11298786      -0.45537542
C        0.18594168      -1.08285901      -1.31690569
C        0.52460553       0.26697642      -0.61761902
C       -0.68435675       1.24665024      -0.63619414
C       -1.83693987       0.86731237       0.26397735
C       -3.19565145       0.56440146      -0.29932436
O       -1.68717857       0.85945547       1.47578418
C        1.23300883       0.11693333       0.77228246
C        1.59029759       1.48221804       1.38971537
C        2.52511984      -0.71480268       0.65793756
H       -1.52097422      -1.72357734      -0.09494328
H       -0.75947158      -3.01523385      -1.06859008
H        0.05858193      -2.43089954       0.41237178
H       -0.42211488      -0.88725285      -2.22684383
H        1.12677842      -1.54975864      -1.67998462
H        1.27392212       0.75011411      -1.28576795
H       -1.04354200       1.34145685      -1.68371794
H       -0.34796927       2.26867230      -0.36380637
H       -3.54936193      -0.41790166       0.07718025
H       -3.17772425       0.53054985      -1.40856824
H       -3.91161778       1.34908086       0.02274079
H        0.55689202      -0.40344329       1.48277358
H        0.67774076       2.04210709       1.67703807
H        2.18428888       1.34656119       2.31888619
H        2.18370406       2.09223607       0.67528492
H        3.22498739      -0.25150015      -0.07026524
H        2.31180578      -1.75377174       0.33745451
H        3.03194908      -0.78073703       1.64447916
