27
Properties=species:S:1:pos:R:3 138039=T pbc="F F F"
C        2.04071432       2.03305487       0.17846973
C        1.70114578       0.86477675      -0.74842496
C        1.69500334      -0.50739004      -0.02693157
N        1.58311514      -1.58411220      -1.01729034
C        0.57172204      -0.61434852       1.04895324
O        0.63389518      -1.83937719       1.74018860
C       -0.83021785      -0.34623868       0.51073784
C       -1.44435281      -1.21477231      -0.41421873
C       -2.72404499      -0.93852333      -0.90501371
C       -3.40673065       0.20304324      -0.48117510
C       -2.81189826       1.07067830       0.43643020
C       -1.53282814       0.79960881       0.93104326
H        2.97511747       1.82546631       0.74172407
H        1.21330935       2.22819404       0.89015864
H        2.19132344       2.95163344      -0.42700604
H        2.47027572       0.84756329      -1.55113007
H        0.72166506       1.05255131      -1.23843742
H        2.67385674      -0.61877444       0.49467839
H        2.32538471      -1.45731838      -1.74327186
H        1.81691566      -2.49067798      -0.55227810
H        0.80099646       0.15567751       1.81547839
H        0.29720096      -2.55863849       1.14806599
H       -0.94262504      -2.10786498      -0.75950235
H       -3.18701153      -1.61132500      -1.61535466
H       -4.39712228       0.41469646      -0.86299988
H       -3.34220799       1.95508267       0.76526982
H       -1.09260184       1.48733453       1.64183661
