23
Properties=species:S:1:pos:R:3 138740=T pbc="F F F"
C       -0.50584134      -3.20511234       1.25544108
C       -0.69372916      -2.04098465       1.50570970
C       -0.92106014      -0.62079617       1.80794005
C       -1.20475975       0.18536239       0.52495669
C       -1.60096093       1.60131162       0.84879244
O       -2.46414811       2.18677935       0.14123428
O       -0.98636749       2.28697066       1.89370486
C       -0.01916507       0.17890482      -0.42340379
C       -0.13072116      -0.43359708      -1.68519843
C        0.95910759      -0.45507273      -2.56085085
C        2.17029553       0.13169807      -2.18734348
C        2.29482995       0.74068599      -0.93664123
C        1.20858209       0.76488473      -0.05689064
H       -0.34068218      -4.22683815       1.03494397
H       -0.03227580      -0.22155717       2.34112755
H       -1.79361559      -0.55003970       2.49248163
H       -2.08170852      -0.29008072       0.02800483
H       -1.23591845       3.24585438       2.10406458
H       -1.05984498      -0.89725578      -1.99227295
H        0.86453611      -0.92829927      -3.52967765
H        3.01266720       0.11354804      -2.86670736
H        3.23436648       1.19380385      -0.64775875
H        1.32641374       1.23982985       0.90834347
