114
Properties=species:S:1:pos:R:3 142449=T pbc="F F F"
C      -10.05699355      -0.78135257       1.66813347
C       -8.89346817      -1.41619703       0.95355217
C       -7.64744866      -0.90136850       0.89863212
C       -7.29302709       0.46147495       1.46846125
O       -7.92469134       1.44070855       0.68746450
C       -5.74016034       0.74508278       1.60422172
C       -5.20422793      -0.05185956       2.82694046
C       -5.55104563       2.25056608       1.95168413
C       -4.84257402       0.40234694       0.34462305
C       -5.43082144       0.82410732      -1.03951478
C       -4.40934206       1.48549354      -1.93580866
C       -4.17940932       2.80288884      -1.84708532
C       -3.29406631       3.50440127      -2.78555946
C       -3.03740534       4.80579394      -2.64107307
C       -2.23518435       5.52892447      -3.64051509
C       -0.92115808       5.76529656      -3.53608443
C       -0.01232133       5.33856057      -2.39094121
O        1.31733318       5.75461220      -2.70472338
C        1.52944407       7.08413533      -2.27780724
C       -0.02811971       3.80147605      -2.19949676
C        1.15014387       3.24811728      -1.44934971
N        1.32057574       1.92084517      -1.22549383
C        2.49381706       1.87433864      -0.56976024
C        2.98873469       3.15932118      -0.40237596
O        2.13354001       3.98059014      -0.95468956
C        3.13196341       0.63081737      -0.11487831
O        2.42251833      -0.37386678       0.18698329
O        4.52531189       0.58771550      -0.02441790
C        5.30830335      -0.58435650       0.24145939
C        6.79355487      -0.14151549       0.60556124
C        7.37062263       0.79999447      -0.49248703
C        7.70538416      -1.39459110       0.70037223
C        6.82800573       0.56515814       2.01771732
O        8.11569255       1.04950769       2.31724131
C        5.77153229       1.64404832       2.21713402
C        5.90686130       2.97626143       2.05136530
C        7.15981475       3.69817841       1.66424479
C        5.18577750      -1.56144938      -0.96397353
C        5.37669534      -3.00309852      -0.57768227
C        4.38991573      -3.74076154      -0.05465301
C        4.60579304      -5.17503388       0.24591935
C        3.62088980      -6.06932475       0.41284505
C        2.18147053      -5.75635997       0.23908390
C        1.24061085      -6.69756374       0.40424123
C       -0.23486496      -6.36661819       0.23366488
O       -0.46661766      -5.71021409      -1.00585770
C       -0.43363169      -6.63233898      -2.07919096
C       -0.69988022      -5.47616459       1.41293560
C       -1.84906010      -4.58346711       1.06527847
N       -1.69265702      -3.35758874       0.51766425
C       -2.95130677      -2.88576655       0.45363389
C       -3.82597077      -3.83925025       0.93479048
O       -3.10581702      -4.86432050       1.31843165
C       -3.28020315      -1.53428840       0.00215173
O       -2.39626131      -0.82615068      -0.57087927
O       -4.53534065      -1.00121546       0.31882363
H       -9.85656413      -0.77630660       2.75090853
H      -10.25468414       0.24956969       1.32040651
H      -10.98481279      -1.36836088       1.50009716
H       -9.06780301      -2.37924537       0.47694204
H       -6.89289886      -1.49638324       0.40328748
H       -7.72587070       0.47383359       2.50830933
H       -8.32596117       2.10264085       1.31080470
H       -5.66054279       0.29955802       3.77329851
H       -4.10260546       0.05700032       2.90636903
H       -5.44180197      -1.13282746       2.72952751
H       -6.24022622       2.57027033       2.77240826
H       -4.50387595       2.45161633       2.28446580
H       -5.74244149       2.90275446       1.06492588
H       -3.88343909       0.94579030       0.50461944
H       -5.83215787      -0.07716139      -1.55738788
H       -6.27907911       1.52107531      -0.94435790
H       -3.89448002       0.89489531      -2.66704666
H       -4.72670902       3.37978477      -1.10916480
H       -2.84973310       2.96781614      -3.61553915
H       -3.45101507       5.36815033      -1.81326207
H       -2.75112030       5.85773093      -4.53683675
H       -0.45844384       6.32048428      -4.34878630
H       -0.40186275       5.78157409      -1.44040682
H        2.56504362       7.37318778      -2.52712563
H        1.40679853       7.17686994      -1.17962763
H        0.86004075       7.78990222      -2.80805764
H       -0.05939125       3.31278255      -3.19409632
H       -0.93976939       3.50719805      -1.62330546
H        3.90911087       3.44892721       0.09286624
H        4.88277679      -1.08893813       1.13583458
H        6.69980803       1.66316932      -0.66900531
H        8.36252444       1.19922883      -0.19933607
H        7.53190004       0.26950849      -1.45241734
H        7.25175092      -2.15354385       1.37122317
H        8.71106109      -1.15453324       1.09461653
H        7.86468007      -1.86035909      -0.29178130
H        6.57596553      -0.22149041       2.76960864
H        8.19706243       1.08609267       3.30503416
H        4.79689111       1.29358220       2.55294376
H        5.03864315       3.59121677       2.25425238
H        6.95104964       4.77778800       1.56730128
H        7.92322343       3.56772782       2.44823561
H        7.54505885       3.32963957       0.70243842
H        5.91019582      -1.29158287      -1.75822953
H        4.18486125      -1.47018872      -1.44593202
H        6.31992127      -3.48164220      -0.82785078
H        3.43486538      -3.26371062       0.13121816
H        5.62887379      -5.53026270       0.33052504
H        3.90235734      -7.09155694       0.65233976
H        1.86385303      -4.76197129      -0.05313510
H        1.51070088      -7.72103886       0.66444746
H       -0.82740400      -7.30981090       0.30212640
H        0.52096618      -7.20586720      -2.11811570
H       -1.30016880      -7.33069219      -2.01403586
H       -0.52290625      -6.06945300      -3.03141917
H       -0.98763673      -6.11455672       2.28025177
H        0.11869063      -4.82019895       1.78261044
H       -4.90450026      -3.76436390       1.00105798
