60
Properties=species:S:1:pos:R:3 142426=T pbc="F F F"
C       -6.74519939      -1.14010800      -1.69670585
O       -6.69582759      -0.01139445      -0.83027547
C       -5.53851512       0.73781243      -0.57195253
C       -5.62561923       1.80813775       0.32579035
C       -4.49747668       2.57546455       0.62852709
C       -3.26331445       2.28707688       0.02701532
C       -2.02623018       3.05072085       0.42800743
C       -1.44455810       2.53265943       1.75300165
C       -1.04265656       1.07159524       1.66471315
C       -1.98888375       0.10717477       2.05822150
C       -1.74044098      -1.26400871       1.88933195
O       -2.67759894      -2.24698958       2.24137387
C       -3.98617719      -1.97198025       2.73123322
C       -0.52854110      -1.67319969       1.33543376
C        0.42362478      -0.73781995       0.92869535
C        0.19417514       0.64519245       1.11043219
C        1.24339977       1.63157955       0.62790240
C        2.63822153       0.99034545       0.50947824
O        3.54543908       1.88526352      -0.08610930
C        2.54765144      -0.32806743      -0.28129475
C        3.89513027      -1.00594286      -0.36844755
C        4.42338672      -1.68556961       0.74032499
C        5.68046208      -2.28666089       0.66559638
C        6.43320570      -2.21056772      -0.50975506
O        7.68518685      -2.82423961      -0.54760268
C        5.92733471      -1.52151603      -1.62725200
O        6.70855425      -1.45476929      -2.79205315
C        6.32070509      -0.78663489      -3.98835743
C        4.65629611      -0.91771297      -1.54582608
O        1.61003931      -1.20000553       0.34747066
C       -3.17320661       1.21765876      -0.87809369
C       -4.30075059       0.44801885      -1.17715173
H       -6.05937015      -1.93282450      -1.32982848
H       -6.46705128      -0.84134272      -2.72946917
H       -7.77878705      -1.54246317      -1.70946050
H       -6.57080397       2.03848596       0.80080692
H       -4.58153298       3.38428261       1.34384512
H       -2.28140482       4.12639347       0.54473277
H       -1.25903618       2.99172821      -0.37290659
H       -0.58944067       3.16790107       2.05463124
H       -2.20061004       2.67249938       2.55719226
H       -2.93546829       0.43584805       2.46631804
H       -4.55548261      -1.37680720       1.98551074
H       -4.51810963      -2.93013112       2.90186873
H       -3.92618547      -1.42261944       3.69434171
H       -0.33317117      -2.72930988       1.19650575
H        0.92839369       2.02385957      -0.36241794
H        1.33865446       2.48317938       1.33046894
H        3.00196785       0.76629856       1.53709820
H        3.23393396       2.05868183      -1.01305158
H        2.16865063      -0.10817423      -1.30490386
H        3.86189715      -1.74872158       1.66424603
H        6.07414327      -2.81196702       1.52654772
H        8.27372282      -2.80041538      -1.37162809
H        6.16388724       0.29437608      -3.78840933
H        7.12794089      -0.89459813      -4.74146309
H        5.39214501      -1.23996901      -4.39528331
H        4.25421528      -0.37618536      -2.39146396
H       -2.22372068       0.96510384      -1.33418350
H       -4.19719359      -0.37462226      -1.87131697
