32
Properties=species:S:1:pos:R:3 143776=T pbc="F F F"
N       -6.53985406      -0.03160129      -0.26328828
C       -5.51896974      -0.54526330      -0.08136179
C       -4.22275248      -1.19705745       0.14918682
C       -3.10667032      -0.16364636       0.35641807
C       -2.85357312       0.68409357      -0.88242243
C       -1.39075145       0.97239717      -0.78200767
C       -0.85454550      -0.23574119      -0.02534209
O        0.16184997       0.15570767       0.88101488
C        1.43141869       0.15032345       0.25584425
C        2.39389158       0.97762447       1.12193046
C        3.80371038       0.93959623       0.52731630
C        4.22527085      -0.50477344       0.25173337
C        3.12909419      -1.22907753      -0.53860220
O        1.89638551      -1.18774889       0.15703574
O       -1.90971478      -0.82462882       0.70399754
H       -3.98475237      -1.85636001      -0.71285114
H       -4.30778042      -1.83178416       1.05664141
H       -3.38498115       0.50500511       1.20304764
H       -3.45824829       1.61722128      -0.87625507
H       -3.05456564       0.10969774      -1.81466151
H       -1.23097560       1.90559309      -0.19643149
H       -0.92319503       1.07355147      -1.78567494
H       -0.50048053      -1.00139340      -0.75740079
H        1.37369185       0.63222566      -0.75252899
H        2.41657644       0.56310416       2.15401263
H        2.04238782       2.03084609       1.17522185
H        3.82084820       1.51807641      -0.42273048
H        4.52119987       1.41166464       1.23242722
H        4.39520339      -1.03328860       1.21533404
H        5.17434771      -0.51436615      -0.32612801
H        3.42643847      -2.29160296      -0.66224024
H        3.02949556      -0.79839468      -1.56123509
