32
Properties=species:S:1:pos:R:3 144729=T pbc="F F F"
C       -3.70703780      -0.30882349       1.57221954
O       -2.33051277       0.04469553       1.62386290
C       -1.53296304       0.13311171       0.47921378
O       -2.02350585      -0.09748500      -0.66102616
C       -0.07463261       0.49912450       0.62187508
C        0.17472427       1.78558663      -0.13932654
C       -0.09520306       3.11447589       0.50606177
C        0.54416636       1.73498772      -1.42593035
C        0.82605497       0.44782524      -2.08435415
C        0.96029879      -0.69143274      -1.38062062
C        1.33412178      -1.94121067      -2.13911629
C        0.89502405      -0.64803180       0.15520996
C        0.42884018      -1.99932210       0.75901990
C        2.31726420      -0.35569083       0.68393205
H       -4.12131553      -0.31240897       2.60118696
H       -3.82246675      -1.32279401       1.13394037
H       -4.26669349       0.43063103       0.96109794
H        0.11100676       0.69002036       1.70291944
H       -0.45434311       2.98688498       1.54884893
H       -0.87406590       3.66122036      -0.06665521
H        0.83680028       3.71777753       0.52423668
H        0.64423943       2.64656047      -2.00273260
H        0.95542020       0.44399718      -3.16028694
H        1.64153617      -2.76993485      -1.47487880
H        2.19149100      -1.73281301      -2.81449168
H        0.46896417      -2.27635214      -2.74882997
H        1.22385971      -2.77260682       0.70849053
H        0.17193040      -1.87526964       1.83335231
H       -0.46761280      -2.38366992       0.22683298
H        3.02870749      -1.14186109       0.34987205
H        2.68993280       0.62231788       0.31099347
H        2.32596970      -0.32950994       1.79508269
