42
Properties=species:S:1:pos:R:3 144078=T pbc="F F F"
C        3.75568920       2.20995456      -0.37455073
C        4.23081195       0.78093663      -0.24570703
C        5.42142446       0.32029571      -1.04657351
C        3.63998947      -0.09986415       0.59242735
C        2.43234387       0.20950650       1.44552441
C        1.11253229       0.11991796       0.65245458
C        0.48750891      -1.29802389       0.63754011
C        1.32095452      -2.29433978      -0.18597477
C       -0.98829471      -1.26676091       0.16940854
C       -1.18507924      -0.74340039      -1.26350397
S       -2.90311794      -0.89561630      -1.82167011
O       -3.27315356      -2.36120787      -1.63031775
C       -3.92095625       0.00473157      -0.66709613
C       -4.35116626       1.29664077      -0.99568384
C       -5.15148323       2.01896599      -0.10476801
C       -5.52832880       1.45130969       1.11596483
C       -5.10692064       0.15983103       1.44584618
C       -4.30716188      -0.56458343       0.55636316
H        2.70423050       2.24235832      -0.72294769
H        3.83774638       2.72679522       0.60423110
H        4.36839891       2.77658184      -1.10595955
H        5.82374423       1.13005208      -1.69009748
H        6.22949914      -0.01262815      -0.36114460
H        5.12709125      -0.52838216      -1.69986274
H        4.06893366      -1.09367233       0.68906956
H        2.53621227       1.22304696       1.88751807
H        2.40806522      -0.49564044       2.30389150
H        0.39015233       0.81437430       1.13514148
H        1.25886971       0.48002168      -0.38727094
H        0.46546853      -1.67538983       1.68443997
H        1.60071842      -1.86594879      -1.17155139
H        2.24697327      -2.56153721       0.36209801
H        0.75483929      -3.23583545      -0.35018083
H       -1.40923789      -2.29248594       0.24869604
H       -1.56175492      -0.62371745       0.87003286
H       -0.90320841       0.32828521      -1.32025207
H       -0.55247722      -1.31347891      -1.97376556
H       -4.06306174       1.74403199      -1.93857844
H       -5.47935589       3.01822749      -0.36052945
H       -6.14749451       2.01109313       1.80495076
H       -5.40067552      -0.28009231       2.39009370
H       -3.98926919      -1.56435294       0.82229437
