53
Properties=species:S:1:pos:R:3 144625=T pbc="F F F"
C        1.00638731      -0.79828531      -1.68655598
C        0.94309330      -0.69276793      -0.13305008
C        1.73158477      -1.92734727       0.46122267
C        3.14041785      -1.61181296       0.99129838
C        3.86973254      -0.62101193       0.08739511
C        3.16101391       0.77097896       0.02859980
C        3.82917782       1.70104980       1.07561106
C        3.41023190       1.37020689      -1.34757528
O        4.55096397       1.57195091      -1.73693434
C        1.61576354       0.63888182       0.36596701
C        0.76999734       1.88996321       0.01128203
C       -0.59370427       1.83093971       0.69524640
C       -1.40669627       0.57792956       0.29805821
C       -2.03763793       0.69821717      -1.09060518
C       -3.09809007      -0.38712896      -1.04763791
C       -2.39037832      -1.75552311      -1.17072852
C       -1.36107785      -2.00838519      -0.03953333
C       -0.55087867      -0.74497475       0.41466059
C       -3.74913475      -0.21643654       0.34019766
C       -5.01603601       0.59977984       0.28116812
O       -5.05310730       1.68604853      -0.35843290
O       -6.14202135       0.16982693       0.97565705
C       -2.66834758       0.46894196       1.19996593
H        0.39118135      -1.63528722      -2.06523434
H        0.70526742       0.12447904      -2.20478920
H        2.03476841      -1.00791191      -2.03482394
H        1.82181564      -2.73523637      -0.29925132
H        1.18158980      -2.39866930       1.30471640
H        3.07580437      -1.19799407       2.02158990
H        3.72686565      -2.55433464       1.05357738
H        4.91727636      -0.52032742       0.44934962
H        3.96034285      -1.07845248      -0.92127802
H        3.69721379       1.29928877       2.10323976
H        3.40580418       2.72542505       1.04296130
H        4.92167628       1.79245439       0.88994121
H        2.59685764       1.61691549      -2.01545635
H        1.56457084       0.57677711       1.47835184
H        1.27842286       2.81046037       0.36228963
H        0.61634537       2.00815554      -1.07814031
H       -0.43874315       1.83616918       1.79742724
H       -1.16180743       2.75462891       0.44661704
H       -2.52192027       1.69189680      -1.22308407
H       -1.34523716       0.56133774      -1.93532563
H       -3.82688342      -0.26951814      -1.88046223
H       -1.89024590      -1.81795890      -2.16005935
H       -3.15272758      -2.56474074      -1.15262987
H       -1.91997136      -2.39321341       0.84123248
H       -0.69118302      -2.83995585      -0.33977951
H       -0.41918720      -0.87001561       1.51453164
H       -4.00837162      -1.20705664       0.77667844
H       -6.99809939       0.71166342       0.96432637
H       -2.47616282      -0.11173380       2.12846081
H       -3.00651636       1.48171332       1.51974660
