55
Properties=species:S:1:pos:R:3 145929=T pbc="F F F"
C       -1.46674515       1.27649685       4.53978010
O       -2.34604517       0.55571794       3.68019064
C       -2.13523142       0.35468187       2.30569922
C       -1.02396833       0.88057367       1.63431780
C       -0.82313088       0.71036246       0.23998541
C        0.38960191       1.46472588      -0.37079945
C        1.70563626       0.65698316      -0.24906064
S        2.24513411       0.41990658       1.48398916
C        3.82267910      -0.29180018       1.01974705
C        3.92870913      -1.66647162       0.76843817
C        5.15592894      -2.21495363       0.38014669
C        6.28137799      -1.39206528       0.25263664
C        6.17873718      -0.02097163       0.51208968
C        4.95064936       0.52970505       0.89445445
C        0.53328920       2.87852798       0.19310035
C        0.33460213       3.39205701      -1.18435047
C        0.22299424       2.02043075      -1.80137478
O        0.19930529       1.60945020      -2.94666267
C       -1.70947928      -0.19426194      -0.44126535
Si      -1.53839478      -0.90139477      -2.18751729
C       -2.30393825       0.26154127      -3.44148508
C        0.17549135      -1.49260037      -2.67213585
C       -2.53591231      -2.48612675      -2.33991460
C       -2.85538221      -0.65314920       0.23950535
C       -3.07377949      -0.38514116       1.59698445
O       -4.20744527      -0.85437159       2.28352317
C       -5.25211050      -1.62722364       1.69599385
H       -1.87618660       1.25933021       5.57099979
H       -1.38819615       2.33477747       4.20713028
H       -0.45963066       0.80143188       4.54562196
H       -0.30983701       1.45033361       2.21043189
H        1.57509044      -0.34633408      -0.68918087
H        2.51585614       1.17565473      -0.80856544
H        3.06055312      -2.30668205       0.85976751
H        5.23578490      -3.27633455       0.17759628
H        7.23105568      -1.81793375      -0.04726686
H        7.04792369       0.61515516       0.41714281
H        4.87536419       1.59264944       1.08893153
H        1.54545297       3.12776766       0.58483033
H       -0.28943307       3.24404432       0.84672636
H       -0.60918054       3.96498798      -1.30709124
H        1.22366797       3.93411057      -1.56993826
H       -1.73300355       0.21580152      -4.39260030
H       -3.35425621      -0.04085556      -3.63270460
H       -2.31084089       1.29886159      -3.04910793
H        0.10271249      -2.05937924      -3.62276686
H        0.55730396      -2.17397593      -1.88533823
H        0.89223973      -0.66977258      -2.82980729
H       -3.62334310      -2.26364862      -2.31997021
H       -2.27523678      -3.17210430      -1.50761471
H       -2.30115390      -2.97978375      -3.30493461
H       -3.58723127      -1.24587512      -0.28046549
H       -5.73182315      -1.05780535       0.87091422
H       -6.01937731      -1.84510381       2.46685124
H       -4.84684823      -2.58994633       1.31439272
