26
Properties=species:S:1:pos:R:3 146072=T pbc="F F F"
C        4.05917382       0.27663009      -0.52712136
C        2.84509918      -0.45308478      -0.06316344
O        2.79787055      -0.89888317       1.11546955
O        1.75733941      -0.60057707      -0.93128951
C        0.51979427      -1.20358267      -0.55211156
C       -0.20436355      -1.58716562      -1.77414815
N       -0.77466351      -1.88876210      -2.73486736
C       -0.31579988      -0.23802139       0.32878977
C       -0.56595951       1.12303004      -0.37501703
C       -1.54582863       1.94600207       0.41427999
C       -2.65860645       1.36800507       0.88028383
C       -2.90167433      -0.08929985       0.60227595
C       -1.62564747      -0.91105347       0.86484007
H        4.97207183      -0.19546147      -0.10660717
H        4.11859577       0.24784777      -1.63530331
H        4.00482443       1.33341710      -0.19276854
H        0.72645128      -2.13678245       0.01712054
H        0.30294426      -0.00713542       1.22479941
H        0.38747503       1.68425511      -0.47994551
H       -0.98739750       0.96374638      -1.39068180
H       -1.32881673       2.98371941       0.64800892
H       -3.35261928       1.93279075       1.49501529
H       -3.19889674      -0.20642280      -0.46255768
H       -3.73332919      -0.46239090       1.23739862
H       -1.77039187      -1.92521714       0.43358378
H       -1.52764520      -1.05560349       1.96371670
