36
Properties=species:S:1:pos:R:3 147655=T pbc="F F F"
C       -4.22182958       2.70875040      -2.03523040
O       -3.07712894       2.39265400      -1.25243279
C       -3.12750329       1.51426414      -0.16640143
O       -4.20705856       0.94493634       0.15229737
C       -1.87568514       1.20831552       0.59043321
N       -1.22803334       0.02194633       0.01627436
C       -0.03266709      -0.37385791       0.79012718
C        1.14350667       0.55351907       0.52498976
C        1.61966632       1.39493793       1.54701702
C        2.69373993       2.25819478       1.31073312
C        3.30176404       2.29294395       0.05382857
C        2.83601231       1.46529960      -0.97020890
C        1.76214903       0.60052623      -0.73955058
C        0.35666355      -1.81683741       0.51566261
C        0.09156036      -2.44520372      -0.71904628
C        0.50075146      -3.76288354      -0.94517779
C        1.18669780      -4.46538281       0.04745528
C        1.47048254      -3.85010623       1.26845723
F        2.14589047      -4.52930261       2.22802409
C        1.06373056      -2.53261855       1.50027360
H       -4.62575867       1.78798988      -2.50699172
H       -5.00123466       3.17687899      -1.39735560
H       -3.93222765       3.42373788      -2.83236046
H       -2.14015691       1.02842967       1.65587878
H       -1.19584490       2.08745922       0.53858557
H       -0.95424873       0.24982683      -0.96881840
H       -0.29144234      -0.33274969       1.87396594
H        1.15937122       1.38562926       2.52709979
H        3.05413715       2.90169844       2.10288554
H        4.13294433       2.96218536      -0.12698737
H        3.30679552       1.49432805      -1.94437673
H        1.41547000      -0.03060312      -1.54719695
H       -0.42547906      -1.92513506      -1.51331414
H        0.28939635      -4.23859370      -1.89419673
H        1.50299281      -5.48473760      -0.13281520
H        1.30257644      -2.06643990       2.44847245
