53
Properties=species:S:1:pos:R:3 147576=T pbc="F F F"
C       -6.80035949       2.64990495      -1.98890239
O       -5.76363939       1.90836006      -1.35748313
C       -4.72395244       1.30356674      -2.07259830
O       -4.68428016       1.39925520      -3.33066846
C       -3.67093088       0.55529678      -1.35111757
C       -3.70160077       0.45857088       0.04766210
C       -2.70193643      -0.23624444       0.73271019
C       -1.63598467      -0.84534600       0.04073821
C       -0.56746259      -1.59383810       0.83775563
N       -0.69844514      -3.05780097       0.67174909
C       -0.00414138      -3.60808148      -0.50505650
C        1.47636034      -3.20971281      -0.55048038
C        1.63491290      -1.69051614      -0.52694730
C        0.90621648      -1.10891837       0.69449299
N        1.04820641       0.36175435       0.81481440
C        1.81814694       0.90362477       1.94432657
C        3.29093869       0.80950848       1.65283087
C        4.05277434      -0.25556840       2.16226542
C        5.41094251      -0.36282668       1.84726584
C        6.01529771       0.58636031       1.01821518
C        5.26197756       1.64372906       0.50105342
C        3.90344363       1.75428602       0.81272144
C        0.58145776       1.27351692      -0.20226460
O        0.91764775       1.10576853      -1.40452234
C       -0.23770762       2.47902174       0.15599313
F       -0.91897490       2.26529225       1.34070264
F       -1.15712908       2.73578500      -0.84497075
F        0.59192932       3.57548685       0.29719927
C       -1.62407260      -0.76102393      -1.36494042
C       -2.62410739      -0.06561125      -2.05007618
H       -6.37038079       3.51938590      -2.52979727
H       -7.50568574       3.01963367      -1.21700394
H       -7.35352143       2.00067258      -2.70000399
H       -4.49803121       0.92064296       0.61690067
H       -2.76134929      -0.28895788       1.81251297
H       -0.79463777      -1.39003268       1.91033134
H       -0.30156786      -3.52470923       1.52199464
H       -0.52174103      -3.31145707      -1.43670763
H       -0.06503264      -4.71740692      -0.46705025
H        1.93828866      -3.61391361      -1.47691248
H        2.00736998      -3.65607527       0.31886584
H        2.71653397      -1.44212245      -0.45960693
H        1.26762825      -1.27669693      -1.48108884
H        1.43250924      -1.57013812       1.56285154
H        1.56459931       0.35234763       2.87647616
H        1.55155062       1.96334549       2.14131806
H        3.59615712      -1.00370176       2.79808115
H        5.99414753      -1.18449075       2.24300328
H        7.06629785       0.50094204       0.77426507
H        5.72970856       2.37525332      -0.14517975
H        3.32843559       2.57228394       0.39696137
H       -0.84353740      -1.20708947      -1.95225460
H       -2.57326891      -0.01131573      -3.13042449
