47
Properties=species:S:1:pos:R:3 148547=T pbc="F F F"
C       -6.55480811       1.89668725       0.42994757
O       -5.13432321       1.82353416       0.49592217
C       -4.38226575       0.68917054       0.15506036
C       -4.97853903      -0.50399415      -0.28480889
C       -4.18849569      -1.61778727      -0.56298434
C       -2.79983568      -1.54553787      -0.44072829
C       -2.16326840      -0.33429369      -0.08790784
C       -0.63546168      -0.27668744       0.12862382
C       -0.38992549      -0.62647293       1.63141672
C        1.05780334      -0.40252977       2.11087445
C        1.58206499       0.98698819       1.70644494
C        1.43103459       1.19881368       0.19524456
C       -0.03545470       1.09034764      -0.12867746
O       -0.60198057       1.96065901      -0.77423165
N        2.21989326       0.13621787      -0.49585145
C        3.45752950       0.67180940      -1.10047107
C        4.49500978      -0.44823775      -1.28450436
C        5.93887047      -0.08264814      -0.96925669
C        5.14034937      -0.93695939       0.00336535
C        1.43579191      -0.67289084      -1.46099977
C        0.14657904      -1.26164263      -0.82163674
C       -2.98882579       0.75651555       0.27231638
H       -6.89770537       1.72972047      -0.61301510
H       -7.00785175       1.14209093       1.10711999
H       -6.88123118       2.90606595       0.75391302
H       -6.05179340      -0.59017634      -0.38536255
H       -4.65565629      -2.54886015      -0.85749369
H       -2.23259405      -2.45177000      -0.60293743
H       -1.04994493       0.00498493       2.26820917
H       -0.67415778      -1.68399393       1.82623040
H        1.71700508      -1.19434803       1.69387619
H        1.09403852      -0.49613553       3.21759726
H        1.02137431       1.77435009       2.25775587
H        2.65352567       1.07222801       1.98997540
H        1.78031418       2.22472323      -0.06606187
H        3.24313231       1.13823699      -2.08716614
H        3.88559041       1.46923963      -0.45096994
H        4.36533406      -1.21676138      -2.07559479
H        6.69620392      -0.65414180      -1.54630903
H        6.12739089       0.95089381      -0.60849064
H        4.83794678      -0.40545165       0.93149814
H        5.41958346      -2.01165837      -0.00323096
H        2.04501315      -1.52103105      -1.83830952
H        1.15320335      -0.04551184      -2.33723749
H        0.40542773      -2.19861637      -0.28176114
H       -0.48622106      -1.55922073      -1.68435141
H       -2.55967016       1.66408167       0.67495849
