36
Properties=species:S:1:pos:R:3 148740=T pbc="F F F"
C        5.22829285       1.84823447      -1.15625699
O        4.12064021       1.71658539      -0.27132989
C        3.40407222       0.52735230      -0.07097004
C        3.72415517      -0.66877349      -0.74122478
C        2.97625248      -1.82584175      -0.50940725
C        1.90767496      -1.80373119       0.38934442
C        1.58191327      -0.62151298       1.07110853
C        0.40325379      -0.58706082       2.00649144
N       -0.82775016      -0.32947284       1.25979428
C       -1.57946978      -1.29214622       0.53047457
O       -1.44779599      -2.53608265       0.68114262
C       -2.50888566      -0.65064529      -0.45300681
O       -2.13041013      -0.98781855      -1.76383817
C       -3.99260782      -0.91834938      -0.19228644
C       -4.66967045       0.43976770      -0.39058843
C       -3.58682675       1.49026884      -0.14059938
N       -2.32262933       0.77323433      -0.21373044
C       -1.27986377       0.92094571       0.75311438
S       -0.83679744       2.36967544       1.38093437
C        2.33166017       0.54118510       0.82958667
H        5.60096064       2.89225816      -1.11774851
H        6.04802797       1.16632864      -0.84599751
H        4.91464601       1.62072733      -2.19697889
H        4.54555915      -0.71397801      -1.44309934
H        3.22398133      -2.74193806      -1.03000404
H        1.33508357      -2.70780808       0.55347900
H        0.31648065      -1.55554544       2.54512514
H        0.54388599       0.19601909       2.78222519
H       -2.64518726      -0.40430533      -2.38090062
H       -4.40542484      -1.68332555      -0.88542266
H       -4.15424403      -1.25394394       0.85657203
H       -5.52801465       0.56749187       0.30415656
H       -5.03365272       0.52256389      -1.43830273
H       -3.61702662       2.28885700      -0.91198792
H       -3.72525756       1.93815879       0.86808658
H        2.08497455       1.46262551       1.34204505
