52
Properties=species:S:1:pos:R:3 149295=T pbc="F F F"
O       -3.30923387       2.56096170       1.10372984
C       -3.74301248       1.38524385       1.25140556
N       -2.81890130       0.31623703       1.51356426
C       -1.36934321       0.50318184       1.38638442
C       -0.57826175      -0.72482115       1.85318264
C        0.63148275      -0.81083935       0.91520615
N        1.01566016      -2.19685310       0.62147342
C        2.21439455      -2.51336705      -0.10499320
N        3.03264244      -1.51798357      -0.54115531
C        4.17135629      -1.77993771      -1.23518064
N        5.00579761      -0.71167450      -1.71176921
N        6.00562962      -0.90675316      -2.57045200
C        6.58096959       0.28744576      -2.85270036
C        5.91069503       1.24954649      -2.13921361
N        6.10973612       2.58831855      -2.08078091
C        5.30070371       3.33624521      -1.27132794
C        4.28368640       2.72015658      -0.50352684
Cl       3.26192524       3.68739326       0.54372917
C        4.09591903       1.32709099      -0.57763772
C        4.93732022       0.61050756      -1.43384255
N        4.50376755      -3.07029243      -1.51030667
C        3.72270550      -4.10026177      -1.09442899
C        2.55397880      -3.84390428      -0.37850314
F        1.77019478      -4.87132558       0.03489434
C        0.25734060      -0.06230197      -0.36619562
C       -1.06502808      -0.42193135      -1.03433010
C       -0.98028355       0.75625666      -0.07073685
C       -5.20127654       1.13284541       1.16676096
C       -6.11198107       2.17867103       1.40628664
C       -7.48908642       1.95310680       1.32141049
C       -7.97251693       0.68579157       0.98863093
F       -9.30827248       0.47001139       0.90400542
C       -7.07859368      -0.35721034       0.73615043
C       -5.70018546      -0.13751976       0.82106539
H       -3.19124626      -0.58962040       1.87619335
H       -1.05342527       1.38021685       1.99367441
H       -0.25612163      -0.61296294       2.91174699
H       -1.20038553      -1.64254479       1.77022023
H        1.48581978      -0.28422215       1.39531325
H        0.42823989      -2.98297663       0.98047932
H        7.41571894       0.43160999      -3.52563210
H        5.44793800       4.40648125      -1.21488906
H        3.33486419       0.85282831       0.02079270
H        4.00967263      -5.11856759      -1.32189486
H        1.01908840       0.47589644      -0.96897311
H       -1.12254406      -0.12688527      -2.10285435
H       -1.57236518      -1.33173332      -0.64797710
H       -0.96046253       1.78193176      -0.49739331
H       -5.75939123       3.16842426       1.66880052
H       -8.18089659       2.76299276       1.51352809
H       -7.45275368      -1.33649168       0.46696757
H       -5.03167904      -0.95641146       0.59109906
