42
Properties=species:S:1:pos:R:3 149945=T pbc="F F F"
C       -1.38966560       1.67930260      -1.37038801
C        0.05168282       1.75929258      -0.85240333
C        0.91725383       0.48191591      -1.12253823
O        0.89759867       0.18790098      -2.50464217
C        2.40426805       0.72911111      -0.69887783
C        3.07581164       1.97368159      -1.29392595
C        0.33133470      -0.79455796      -0.39505510
C        0.12651835      -0.69412393       1.16022555
C       -1.21291907      -0.13146890       1.57726141
C       -2.39568576      -0.83735725       1.29025570
C       -3.63527250      -0.33306102       1.69450644
C       -3.70473374       0.86744981       2.40546145
C       -2.53372893       1.55988261       2.72326766
C       -1.29168740       1.05879947       2.32205630
N        1.10659740      -2.00884937      -0.80641094
C        2.15879131      -2.46649096       0.12702651
C        0.22747331      -3.13434388      -1.16713457
H       -1.87517300       2.67112244      -1.25307085
H       -1.40745056       1.41069650      -2.44714953
H       -1.99336874       0.94797769      -0.80354128
H        0.05664043       2.01178706       0.22441868
H        0.50009996       2.63032947      -1.37238471
H        1.05597178       1.02151102      -3.01820735
H        2.49105414       0.81227486       0.40238051
H        3.01759484      -0.13531132      -1.02808464
H        4.15901014       1.95189347      -1.04923874
H        2.66047090       2.90190110      -0.85059541
H        2.98129832       2.00262557      -2.39793570
H       -0.68832600      -0.89730427      -0.82568864
H        0.15856238      -1.70783433       1.60884389
H        0.94897832      -0.12759427       1.63817811
H       -2.35703912      -1.77506946       0.74991535
H       -4.54201951      -0.87531697       1.45966279
H       -4.66512861       1.25633299       2.71819502
H       -2.58786196       2.48316539       3.28543124
H       -0.39370393       1.60153009       2.58967070
H        1.75708603      -3.16871534       0.89061917
H        2.94714293      -2.99706380      -0.44707944
H        2.64481596      -1.62447103       0.65738001
H        0.83016248      -4.01271714      -1.48563565
H       -0.41533539      -3.42508564      -0.30723137
H       -0.41711884      -2.85374748      -2.02753704
