22
Properties=species:S:1:pos:R:3 153733=T pbc="F F F"
C        2.36268001       1.38142214      -0.22464730
O        1.94645465       0.36597823       0.66358567
C        1.09612843      -0.55508992       0.00062376
C        1.14435393      -1.86919577       0.73055610
O        0.92275028      -1.91767819       1.93071820
S        1.52923613      -3.38176739      -0.15114357
C       -0.33298584      -0.05273970      -0.03005163
C       -1.13421612      -0.27831496      -1.16326784
C       -2.46159879       0.16053885      -1.18882398
C       -3.00362090       0.81889939      -0.08217377
C       -2.22057685       1.03600906       1.05425789
C       -0.89281875       0.59903780       1.08490032
H        3.02729657       0.96764582      -1.01455459
H        2.94579287       2.13292654       0.34588651
H        1.49497997       1.90598808      -0.68301706
H        1.44792108      -0.74806066      -1.04185777
H        2.90931772      -3.22393941       0.07514552
H       -0.73221272      -0.79396617      -2.02655117
H       -3.07122355      -0.01263521      -2.06624076
H       -4.03161471       1.15686544      -0.10360601
H       -2.64351564       1.54043085       1.91341979
H       -0.30252777       0.76764520       1.97684171
