56
Properties=species:S:1:pos:R:3 154201=T pbc="F F F"
C        8.75333024      -0.05972365       0.31096600
C        7.86713356       0.68175653      -0.64441671
O        8.06383896       0.57839628      -1.84569198
C        6.72404303       1.52701199      -0.14630719
C        5.54657755       0.67252506       0.34433996
C        4.84523631      -0.06535202      -0.80918122
C        3.70977360      -0.97959302      -0.32208382
C        2.47710099      -0.19410524       0.14972694
C        1.32438851      -1.14200449       0.50257139
C        0.09318289      -0.35994145       0.97547273
C       -1.06494358      -1.30976555       1.31455157
C       -2.27242149      -0.58294939       1.93354652
C       -2.92438317       0.49221327       1.03857076
C       -3.38151751       0.00872929      -0.36841425
C       -4.35188432      -1.18802301      -0.33408404
C       -5.73816042      -0.81929519       0.21185516
C       -6.12364859       0.65699236      -0.02422855
O       -7.51431977       0.77437086      -0.18938477
C       -5.39265930       1.28453306      -1.23472013
C       -5.92063983       0.76940374      -2.58193543
N       -3.92030832       1.12535730      -1.18136542
H        8.67540352      -1.15022008       0.12001564
H        9.80614104       0.26193429       0.16834729
H        8.45927998       0.14050624       1.36285169
H        7.08667991       2.15866539       0.69315361
H        6.37920464       2.21587412      -0.94870319
H        4.82259961       1.35142584       0.84197804
H        5.90313976      -0.05850382       1.10284368
H        5.58770647      -0.70238387      -1.33645476
H        4.44972397       0.66879339      -1.54493014
H        3.41231736      -1.63578933      -1.16935487
H        4.07850404      -1.63522203       0.49706512
H        2.14887176       0.49794853      -0.65655265
H        2.73510208       0.40487916       1.04849328
H        1.65306563      -1.83522227       1.30831917
H        1.05409155      -1.74375083      -0.39332792
H       -0.21924762       0.33588746       0.16758042
H        0.35881359       0.23587391       1.87637781
H       -1.37476855      -1.87380974       0.40973033
H       -0.70846102      -2.05915858       2.05509418
H       -3.03541683      -1.33440379       2.22650419
H       -1.94487150      -0.09577141       2.87796731
H       -2.20421176       1.32927543       0.91724946
H       -3.78216113       0.91249337       1.59702266
H       -2.47126311      -0.34027037      -0.89941142
H       -3.93078855      -2.03257270       0.24893579
H       -4.45883390      -1.57597314      -1.36900883
H       -5.76492233      -1.02260503       1.30498255
H       -6.48979607      -1.48876558      -0.26211450
H       -5.83339512       1.25131461       0.87068891
H       -7.92557194       0.59363587       0.69649461
H       -5.62490684       2.37477289      -1.21619353
H       -5.84953197      -0.33332637      -2.65795407
H       -6.98323461       1.06257417      -2.71756457
H       -5.33504281       1.21910238      -3.41199778
H       -3.47393856       2.03225513      -0.90791505
