36
 energy: -53.071245071632 gnorm: 0.000836825533 xtb: 6.4.0 (9c8c9fdf7fc760ef3a1a1161954ed8db39bbc47e)
P        11.85284458178433    7.07790147687710    0.42491327936753
N        10.48151936290893    7.73615644867641    1.22491359294628
H        10.35195538006911    7.56118867097639    2.21373051924887
C        13.19506871285903    7.54595603763262    1.64893437998240
H        13.97844812055927    6.79037697720830    1.51662838148382
C        12.76123550129132    7.55773743853170    3.11248563780679
H        13.64154388086258    7.65957277463306    3.74500489062871
H        12.25205155976057    6.63937900245211    3.40079566622789
H        12.11214563003909    8.40766622569611    3.31587049647172
C        11.63758432996773    5.26081763402198    0.82581180608060
H        11.78899344998654    5.11111037744289    1.90231309859004
C        12.69448082364178    4.48298410014447    0.04702324578876
H        12.63899584753444    3.42242564407853    0.28550877390834
H        13.69922628023046    4.83222745677554    0.28070663646359
C        10.23775856581752    4.79651706862949    0.43696958791728
H         9.46963367592665    5.30320623638711    1.01999813582658
H        10.14099743519283    3.72553821482173    0.60455501614506
Fe       11.46555022180483    7.89819555779558   -1.69369404503889
Br       10.87647654937480    6.30000785191479   -3.16909827935791
Br       12.60492404347229    9.76673937487332   -2.24020722845940
N         9.58090412341695    8.65686430111045   -0.70484937446773
C         7.52113633930512    9.85865435738715   -0.66339122428307
H         6.77370041672360   10.41480839725510   -1.20353845274271
C         8.62245599194502    9.35080536424901   -1.31805719227433
H         8.76126519646600    9.49526429415342   -2.38092354755609
C         9.47925751175835    8.43925086802643    0.61297556481008
C         8.38900674809279    8.91704910674197    1.35154510745848
H         8.33384954608908    8.72215719235722    2.41193148190746
C         7.40553402286722    9.63182613413455    0.70467083393668
H         6.55775627562489   10.01063996381326    1.25501436194564
C        13.74990697330801    8.90984879326305    1.24575151721113
H        12.96098283730873    9.66238321407273    1.26077474479907
H        14.16764738905579    8.87833679089392    0.24134843041039
H        14.53428935878176    9.22417943849007    1.93201556726567
H        10.05228175846677    4.98880957525548   -0.61935451788428
H        12.52986255772461    4.59899963919918   -1.02340789256973
