73
 energy: -129.055403807578 gnorm: 0.000516773985 xtb: 6.4.0 (9c8c9fdf7fc760ef3a1a1161954ed8db39bbc47e)
Cr        6.87089539507483   -3.11501419360541    4.12956087726673
S         5.45629986620765   -2.11635057209492    6.67748128236149
S         8.28625004704013   -2.11729127817925    1.58431444063953
O         6.19722120929371   -3.23087895770692    5.99805604935070
O         7.54339262818267   -3.23209403956632    2.26089201224474
O         6.28421324022920   -0.94112049476401    6.81292545994235
O         7.45820906249844   -0.94226788939602    1.44765170179179
O         4.16252960529349   -1.92054133256122    6.06511141001769
O         9.57836170989911   -1.92183474107193    2.20041152997862
N         6.15797559901531   -3.29677638044010   10.42984977911637
N         8.21305165146914   -1.71816977548878    4.84794032792288
N         5.52831513042914   -1.71724710865267    3.41456335533811
C         6.22867951312668   -2.72239956317789    9.24104621634505
C         5.22548990427846   -2.82610618423495    8.29586871583753
C         4.08839797250373   -3.56234916150807    8.58787743374285
C         5.06740468677475   -4.00034417974923   10.71364486259493
C         8.39397789454712   -0.50253942326560    4.32398753934939
C         5.34758464318896   -0.50259082323488    3.94081898531079
C         9.17216700404026    0.47040353567353    4.92074736183213
C         4.56199677625245    0.46854231295589    3.35086020442247
C         9.80136728565901    0.19659851214216    6.12664981598929
C         3.92406471744555    0.19372156998704    2.14975631051288
C         9.61430078869894   -1.06419077707381    6.67645379286089
C         4.11185026667055   -1.06562705369110    1.59685837768187
C         8.82226828676279   -1.97637335301919    6.01234179378472
C         4.91222340910961   -1.97576405689471    2.25380892173969
H         7.11357860152100   -2.14209562004458    9.02048780021622
H         3.30588188877108   -3.63648395880948    7.84930257119064
H         5.05429059475667   -4.45094351562554   11.69709784962886
H         7.90981942282370   -0.30062076105897    3.38109239915231
H         5.83779570389674   -0.29987545088431    4.88039396107256
H         9.27686398578914    1.43136018373800    4.44297060015930
H         4.45789789392608    1.42865737760158    3.83044079173344
H        10.40878316980127    0.93746239610149    6.62307187471995
H         3.30949784739890    0.93271973713284    1.65938385358169
H        10.07218886741356   -1.33555315409436    7.61501981137877
H         3.64753630639097   -1.33764584310976    0.66161505899530
H         8.65174035904686   -2.95660230343755    6.43533808100334
H         5.08350258262936   -2.95466315863457    1.82808020745547
N         8.21311694144216   -4.57317387019450    4.61530124819650
C         7.88387217523041   -5.60428984871467    5.42400696464945
C         8.72471456350817   -6.66021787668452    5.67916183061658
C         9.98942054000436   -6.69181692850832    5.08865156776930
C        10.33937680668363   -5.61760651969038    4.26561756409951
C         9.44374871452918   -4.59578929872418    4.05950687736890
H        10.67123382354195   -7.50669523792185    5.26798391536922
H        11.30926147922331   -5.58084701087976    3.79470480919391
H         9.69035769968573   -3.74937389108652    3.43277242890927
N         5.52782065340983   -4.57310731480260    3.64383987951640
C         5.85498342092071   -5.60300327110326    2.83276711999716
C         5.01205382185650   -6.65668569261580    2.57512200203824
C         3.74742377647811   -6.68740319739128    3.16591718487029
C         3.40004001282344   -5.61495503175897    3.99233323629069
C         4.29756207341175   -4.59525461236163    4.20062887412485
H         3.06389674837081   -7.50039157546075    2.98445108132844
H         2.43062763519643   -5.57783133498370    4.46419149956646
H         4.05294085643047   -3.75019518179646    4.82998013117249
N         7.60381011781594   -3.29828846745936   -2.17267181762915
C         7.52667105925775   -2.72211339390531   -0.98509734747305
C         8.52353404566759   -2.82694780310274   -0.03337055580730
C         9.66083187976161   -3.56614489515519   -0.31731422665323
C         8.69441529798496   -4.00494468177547   -2.44855502231511
H         6.64163216999631   -2.13949602301138   -0.77132016810140
H         8.71259189955620   -4.45733681962205   -3.43110381469027
C         4.00563423184995   -4.16270988995929    9.83626614868128
H         3.14105573226098   -4.74266339473899   10.12018367305880
C         9.75027925513857   -4.16847135901530   -1.56425065619196
H        10.61527074342887   -4.75090092520508   -1.84180382621574
H        10.43841146118031   -3.64097412805084    0.42636772762425
H         5.33106782716202   -7.44933581167938    1.91615189477060
H         6.90613374103676   -5.53931979422634    5.88130231438495
H         6.83279288617280   -5.53889078436879    2.37545748114362
H         8.40387639111834   -7.45391865436435    6.33595456206789
