49
 energy: -68.977121462654 gnorm: 0.000607965042 xtb: 6.4.0 (9c8c9fdf7fc760ef3a1a1161954ed8db39bbc47e)
I         3.37645250484564    6.91484776256926   24.75074476411229
Ni        5.79919366968242    6.21312276503331   25.28529059662558
S         6.27007967875499    6.33122861013690   22.93605162989368
S         5.98266857373786    8.50834615545446   25.95234195914430
O         8.14895760609112    6.56024448541242   25.31871969832379
N         5.44283101868532    4.04896928974257   25.05607414097783
N         5.76706083932591    5.60922379806094   27.42314067547544
C         6.33168982994967    4.51178347503622   22.72602363065509
C         5.28421054977617    3.83657241419927   23.60145129108652
C         4.21018949593731    3.52788046030244   25.68536700778992
C         3.98820531908514    3.76546687107691   27.18682596783599
C         4.42593517641204    5.10541491473682   27.78188295213360
C         6.84238911088206    4.65028082778360   27.75110273315992
C         6.86468345571847    3.29962198338022   27.02861653998075
C         6.64862637245540    3.34444291502897   25.51865457976385
C         6.02209102418073    6.82884276310774   28.22260698667230
C         5.44815776336885    8.11762928958393   27.64948026697701
C         7.76684202131136    8.86957393938409   26.09247947458266
C         8.65303026717237    7.62063416415981   26.11371727178410
C         8.80971185686386    6.29704622587779   24.09469950932376
C         8.02994535209813    6.80138462958385   22.88474795457330
H         7.34220442322839    4.16846539804880   22.93288576930258
H         6.09749379402447    4.30845855099665   21.68030260749052
H         4.30712384509656    4.22913711676064   23.30744511680826
H         5.29538742731254    2.75849891738263   23.38010891220711
H         4.15791726167606    2.44435313720480   25.51034912448514
H         3.37411959822599    3.98914898483492   25.15878609941262
H         2.90769563730524    3.71405824941150   27.33862075031895
H         4.40514454687274    2.95101071626029   27.77449320933324
H         3.70582706526839    5.86961896836303   27.48476764793713
H         4.36641681633477    4.99640694568448   28.87539611132484
H         6.82208241331058    4.44637962327610   28.83199605910092
H         7.78872685388717    5.14740047827529   27.52163695186640
H         6.17838767843477    2.59431010011024   27.48491223783789
H         7.86501273328783    2.88804380306298   27.18827888998261
H         7.51740541449816    3.83184498885563   25.06963100714693
H         6.62249431577458    2.30381453488596   25.15888997480316
H         7.10008751125774    6.95734054841745   28.33400867154236
H         5.61159303695757    6.70253250906502   29.23547869255869
H         4.36047594415956    8.08606881113062   27.58109894473014
H         5.73319072238882    8.95906124063751   28.28163790306572
H         7.93472588449269    9.47570687826207   26.98069774770160
H         7.97097869383677    9.47478906660185   25.20807564220179
H         9.66409425632435    7.89110151151879   25.79095540890073
H         8.73011380957218    7.23576499279485   27.13655120496974
H         8.93452229594408    5.20874875968764   24.03243646082013
H         9.81093551105706    6.74126424674320   24.09203979008699
H         8.01353415537956    7.89140097463931   22.85175145099243
H         8.46347486775680    6.42215820743630   21.96036898219974
