54
 energy: -95.494741772949 gnorm: 0.000621941275 xtb: 6.4.0 (9c8c9fdf7fc760ef3a1a1161954ed8db39bbc47e)
Fe        0.13710293820599    7.57574527630148    5.07372392209909
O         0.47541290526858    8.55796310103573    6.91473316251723
O         1.53703177425851    8.01056367960363    3.55392249469795
O        -1.55096566339613   10.79143491703597    9.80418294905375
O        -3.44863878961532   10.47439561322911    8.66828382879857
N        -1.99359411906750    8.33240902524048    5.72299296982191
N        -1.18180906872690    7.99363867722987    3.18180172990408
N        -0.26920147177865    5.32271709016581    5.52607088453801
N        -0.42757787344371    3.41661246431874    6.60110154383351
H        -0.21213602555108    2.66109892609862    7.23130108439651
C        -0.10006325579431    9.22017871977668    7.81168086971974
C        -1.49119329635373    9.51323237648142    7.78231058334674
C        -2.33026403165412    9.07961359743521    6.72649859172311
H        -3.35503543237778    9.45241795816658    6.77960632249429
C        -0.83236942705165    8.47788455575680    2.03092989221186
C         0.48652251328405    8.69338244832513    1.56465979588119
C         1.62559976098084    8.43287500757517    2.37659659496636
C         0.76426893499932    9.71814389133259    8.94009880237524
H         0.39875830098845    9.34661316020640    9.89369158634785
H         0.72917834031943   10.80334664390551    8.98910948024735
H         1.78596916043169    9.38510892324882    8.77138920274209
C         3.01454509047534    8.67072594917225    1.84570535875593
H         3.73469524666197    8.39312305503451    2.61209933554566
H         3.13960242761250    9.71658440641118    1.57743432826672
H         3.18208187217485    8.08970715300242    0.94280210993671
C        -2.10701081028390   10.30956995804820    8.83988055423534
C        -4.09403977305030   11.23924916459496    9.66988149162937
H        -4.00515653211863   10.74881835104567   10.64210694106812
H        -5.13751949629186   11.30960462532846    9.37232097300738
H        -3.64736249900491   12.23337737292085    9.74083818235074
C         0.63880600235316    9.22895920406258    0.21464471613053
C        -1.39693271164383    4.67549795566758    5.11155440886977
H        -2.04312813978652    5.11034220325323    4.37640720668968
C        -1.50920154662132    3.48816887243134    5.77141473057359
H        -2.24547184744517    2.71384276079870    5.71968601743487
C         0.28974851068269    4.54315760254912    6.41999609876596
H         1.19967844474337    4.76238803468972    6.94246510264135
O        -0.55081445803604    9.38290823835344   -0.43179493698022
C        -0.46100654577199    9.91051594502804   -1.74288735869256
H         0.02294108928473   10.88965717440380   -1.72932583118226
H        -1.48273558658241    9.99442098787428   -2.10559099659981
H         0.12027189632080    9.24433940360450   -2.38464163817387
O         1.67766288688796    9.52022580554853   -0.33906208958284
C        -2.94351211812869    7.91600832659494    4.80233423391115
C        -4.25791062381748    7.59963700140500    5.14140548034283
H        -4.57783306478959    7.69493489066080    6.16861440570567
C        -5.14141941158231    7.13362080068061    4.18470678952983
H        -6.15487452631713    6.88792590674072    4.46516112950374
C        -4.72408360009426    6.96787506807377    2.87373373380820
H        -5.41122056378111    6.59338750964368    2.12959043225769
C        -3.42133038715198    7.26560131299869    2.51722940712271
H        -3.08869340385964    7.10062370537840    1.50284188730406
C        -2.51609757343484    7.74302217856954    3.46404545093863
H        -1.61602442146061    8.78462502298244    1.33538005315288
