37
 energy: -115.587919274059 gnorm: 0.000592413373 xtb: 6.4.0 (9c8c9fdf7fc760ef3a1a1161954ed8db39bbc47e)
Br       10.61579122640632   23.19923990225805    1.58486391426331
Br       10.13302757911090   20.16228110960011    2.80821817428172
Br       10.11472845930814   19.70350496594955    6.05131209348962
Br       10.58945162109209   22.27423154701859    8.07652927262775
Br       11.70014226979116   30.11870030967112    1.28990948720352
Br        6.36622411416161   28.19236982203464    4.56198951840682
C        10.80848736397143   24.00331746573532    4.28276641222189
C        10.60733346415875   22.90451199092118    3.45796078387903
C        10.40205899602470   21.62499731550404    3.97472279220006
C        10.39515412641912   21.43465034761133    5.34223418522916
C        10.59236205312244   22.51653776889985    6.19654296332737
C        10.80579465499235   23.81290499419436    5.72240805824479
C        10.30187251548787   28.61448502209281    3.21640124427575
C        10.13611598206910   29.57263652941083    2.21956827460039
C         8.89765938086687   30.12735102388199    1.89835027890645
C         7.77536608665713   29.72112249706191    2.58765814667156
C         7.89797574795631   28.76791140074800    3.59702284103191
C         9.11598938847231   28.18917718542540    3.95171161736936
Mn       11.34171373101093   26.56839211548837    5.07345085360434
O        10.99119659845960   25.20936918918284    3.85105103008210
O        10.99504260612051   24.82988522376858    6.46636888372376
O        11.43895748097236   28.10551304168365    3.51447221926551
O         9.23157705676451   27.31616984293854    4.87770284593489
Br       16.41359774691820   25.44366286538973    6.22565807807811
Br       17.28270920999292   27.31551503839335    8.81077931852927
Br       15.13200553324733   29.43218304928193   10.08168255681529
Br       12.10914371117501   29.69014111725562    8.76042429678864
C        13.91612889274036   26.74222986219525    6.39642746768341
C        15.18459419345694   26.67450515287884    6.97929341682408
C        15.54893850010223   27.46205086430578    8.06803793255949
C        14.64486606736577   28.35602310753213    8.60609180714244
C        13.36953069735251   28.46345943357096    8.05071779829475
C        12.97362282355294   27.69021239821945    6.96746676985977
O        13.54185332242511   26.03747612530745    5.40525685602241
O        11.80677318021016   27.76595759228028    6.41345308055634
Br        6.08122563033145   30.45735512456989    2.16598291666464
Br        8.75697698773349   31.43048565774121    0.53047581334158
