39

C     -3.152072   -0.571583    0.561986
C     -2.311710   -0.648629    1.804700
C     -1.725534   -0.033631    0.545641
C     -1.830827    1.480664    0.345126
C     -3.308840    1.754290    0.205994
C     -4.005441    0.609671    0.331226
C     -5.486373    0.472594    0.265289
C     -0.620541   -0.792880   -0.173161
C     -0.766237   -0.693114   -1.694826
C      0.759014   -0.313368    0.321372
C      1.915178   -1.190003   -0.166439
C      3.221325   -0.747995    0.435518
C      4.201285   -0.037544   -0.156423
C      5.468249    0.291870    0.589248
C      4.151156    0.502612   -1.559050
H     -3.379369   -1.474612    0.010257
H     -2.550934    0.003669    2.637991
H     -1.968930   -1.628778    2.117362
H     -1.310474    1.818622   -0.555079
H     -1.418784    2.011340    1.209684
H     -3.726993    2.735519    0.038675
H     -5.771377   -0.192966   -0.555578
H     -5.974390    1.438849    0.101334
H     -5.872028    0.054053    1.200238
H     -0.716778   -1.856545    0.084856
H     -0.530478    0.310940   -2.061145
H     -0.099060   -1.397440   -2.201246
H     -1.788184   -0.930410   -2.008899
H      0.756853   -0.301692    1.419931
H      0.928214    0.724652    0.006140
H      1.740677   -2.231692    0.130190
H      1.966534   -1.194355   -1.258335
H      3.364662   -1.069485    1.467373
H      5.590457    1.377043    0.669292
H      6.335302   -0.118645    0.061451
H      5.472504   -0.118700    1.604529
H      4.904304    0.007225   -2.180218
H      3.178988    0.372643   -2.039823
H      4.360653    1.577814   -1.555183
