34

C     -5.304469   -0.118226   -0.702838
O     -4.316836    0.651547   -0.031747
C     -3.194818   -0.146272    0.345059
C     -2.237276    0.717112    1.142583
C     -1.438185    1.388019    0.051054
C     -1.382999    0.330218   -1.043424
C     -0.065607   -0.456552   -1.082407
O      0.247739   -0.984874    0.211697
C      1.480082   -1.706213    0.225874
C      2.668634   -0.779552    0.304708
C      2.694281    0.267851    1.237311
C      3.798654    1.116367    1.321595
C      4.891947    0.922226    0.479943
C      4.882722   -0.121221   -0.444199
C      3.778087   -0.970800   -0.530161
O     -2.474166   -0.583349   -0.810327
H     -5.661009   -0.931503   -0.063319
H     -6.149554    0.536267   -0.933416
H     -4.914097   -0.519617   -1.642583
H     -3.530408   -1.010454    0.928919
H     -2.736976    1.437609    1.796385
H     -1.577432    0.089566    1.751142
H     -1.988892    2.262625   -0.317098
H     -0.455867    1.737970    0.381507
H     -1.540809    0.788517   -2.026246
H      0.740262    0.207145   -1.414594
H     -0.160102   -1.290860   -1.787068
H      1.536148   -2.373847   -0.642261
H      1.480611   -2.339292    1.120333
H      1.844484    0.426188    1.898665
H      3.805345    1.927421    2.044932
H      5.752411    1.582635    0.546070
H      5.737992   -0.274606   -1.097292
H      3.790102   -1.782047   -1.254457
