25

O      0.204003   -0.550940   -2.350286
C      0.159786    0.364984   -1.253040
C     -1.124445    0.137155   -0.476550
C     -2.101629    1.142363   -0.409981
C     -3.287257    0.932422    0.296582
C     -3.511377   -0.282642    0.940907
C     -2.552193   -1.291070    0.879291
C     -1.366373   -1.084593    0.173539
C      1.414466    0.268673   -0.412037
C      2.419000   -0.679021   -0.644232
C      3.553608   -0.704043    0.163520
C      3.645299    0.229210    1.179829
Cl     5.009539    0.268404    2.218153
N      2.710615    1.163197    1.442743
C      1.620019    1.159028    0.642716
H     -0.715786   -0.784596   -2.563682
H      0.146336    1.364806   -1.704777
H     -1.948791    2.098429   -0.906697
H     -4.037507    1.717892    0.345972
H     -4.434046   -0.443602    1.492808
H     -2.726356   -2.238499    1.383306
H     -0.626137   -1.882164    0.134548
H      2.324234   -1.397996   -1.455241
H      4.339539   -1.431069   -0.003564
H      0.885452    1.923673    0.886172
