35

C     -0.962832   -0.250207   -0.294924
C     -1.008520   -1.422332    0.706695
C     -2.390693   -1.390147    1.345176
C     -3.273294   -0.843517    0.234346
C     -2.405295    0.247169   -0.386856
C     -2.850104    0.643213   -1.786747
O     -2.439612    1.406196    0.452051
C     -1.155749    1.824427    0.693277
O     -0.948247    2.871142    1.286165
N     -0.245284    0.900041    0.188629
C      1.187230    1.029032    0.171034
C      2.066195    0.002332   -0.266191
O      1.540524   -1.187381   -0.708022
C      2.337974   -2.350532   -0.504778
C      3.457870    0.217187   -0.295144
C      4.007696    1.420569    0.134314
C      3.170262    2.426997    0.582902
C      1.784473    2.232871    0.593875
H     -0.603332   -0.564525   -1.279900
H     -0.900671   -2.363980    0.153974
H     -0.217156   -1.388709    1.462205
H     -2.395135   -0.715866    2.209569
H     -2.713603   -2.378737    1.684295
H     -3.492341   -1.636151   -0.490824
H     -4.215669   -0.458817    0.636662
H     -2.216107    1.440717   -2.189931
H     -3.872997    1.035367   -1.769601
H     -2.815943   -0.206833   -2.475632
H      1.682311   -3.221943   -0.595647
H      3.105458   -2.432439   -1.280542
H      2.782122   -2.371333    0.496518
H      4.139335   -0.540324   -0.669322
H      5.083177    1.573401    0.108889
H      3.583026    3.376080    0.916816
H      1.194932    3.077031    0.936672
