37

C      5.204218    1.214279   -0.345889
O      3.788554    1.187570   -0.471822
C      3.140486    0.038045   -0.097817
C      3.776492   -1.105842    0.393719
C      3.031581   -2.226436    0.760831
C      1.645429   -2.212253    0.643557
C      0.984083   -1.073383    0.160304
C      1.735419    0.057097   -0.231340
C      1.051614    1.315883   -0.731369
C     -0.436973    1.160472   -1.052947
C     -1.124045    0.311779    0.024855
C     -0.524689   -1.113861    0.003521
O     -0.814562   -1.789641   -1.225867
C     -2.641694    0.338778   -0.074577
C     -3.404859    0.694515    1.049514
C     -4.799558    0.731017    0.985253
C     -5.452043    0.410041   -0.202143
C     -4.710264    0.050911   -1.324482
C     -3.315548    0.015383   -1.261124
H      5.510394    1.093584    0.698428
H      5.671990    0.460019   -0.987107
H      5.550654    2.196405   -0.681857
H      4.854196   -1.158297    0.505783
H      3.535047   -3.112643    1.139154
H      1.076996   -3.096522    0.926830
H      1.557239    1.682003   -1.633065
H      1.162061    2.083514    0.045596
H     -0.895127    2.154928   -1.122567
H     -0.547907    0.698481   -2.042244
H     -0.862637    0.762794    0.994602
H     -0.967826   -1.702562    0.816028
H      0.027080   -1.972573   -1.677171
H     -2.918554    0.949390    1.988569
H     -5.375965    1.009473    1.863377
H     -6.536984    0.436087   -0.252475
H     -5.215380   -0.207422   -2.251310
H     -2.758918   -0.281016   -2.147541
