36
Properties=species:S:1:pos:R:3 energy:=T -50.650238595325=T gnorm:=T 0.002387567917=T xtb:=T 6.6.1=T (8d0f1dd)=T pbc="F F F"
C        1.62704947      -0.21440122       0.54992838
N        2.76263485      -0.10259825      -0.34901772
C        3.51366352       1.10120010      -0.17401150
C        4.52847433       1.25696030       0.93076163
C        4.97141278       1.12257353      -0.49965230
C        0.99446766      -1.59301493       0.45218792
C       -0.17780666      -1.80580528       1.40241121
O       -1.21182922      -0.87336290       1.21933722
C       -2.00802781      -1.09899011       0.06449905
C       -3.01626107       0.01316647      -0.03673636
C       -2.57610313       1.31223023      -0.25741112
C       -3.48009556       2.35436466      -0.34389352
C       -4.83698626       2.10755239      -0.21649828
C       -5.28255187       0.81642033       0.00469163
C       -4.37565741      -0.22590636       0.09900540
C        1.08211592      -2.35601055      -0.79719275
O        1.87459002      -2.67670092       0.31699169
H        0.87977979       0.53537335       0.27088131
H        1.90104077      -0.03643529       1.60492232
H        3.36599130      -0.90914104      -0.20539612
H        2.92464524       1.97454829      -0.43352367
H        4.69607458       0.41451136       1.58609234
H        4.63141069       2.21477902       1.41668955
H        5.43566142       0.19496461      -0.79929852
H        5.37519227       1.98892705      -1.00035569
H       -0.54786203      -2.83666427       1.29901894
H        0.16405544      -1.65983344       2.43166243
H       -1.37471606      -1.10826132      -0.83676248
H       -2.51117157      -2.07545829       0.14597874
H       -1.51754016       1.50006871      -0.35639325
H       -3.12722453       3.36094513      -0.51418429
H       -5.54454303       2.92055958      -0.28858502
H       -6.33967618       0.61976199       0.10760140
H       -4.72957781      -1.23141719       0.27662787
H        0.31702122      -3.08366247      -1.04278269
H        1.61234808      -1.92124228      -1.63537775
