33
Properties=species:S:1:pos:R:3 energy:=T -45.130548462074=T gnorm:=T 0.002298860230=T xtb:=T 6.6.1=T (8d0f1dd)=T pbc="F F F"
C        5.09088335       1.19522920       0.31246313
C        3.75845317       0.75014446       0.90272702
C        2.99654195      -0.16248068      -0.05408824
C        1.63692529      -0.57021857       0.51104058
C        0.87753160      -1.49041635      -0.40502512
O        1.38934505      -2.21360684      -1.22668147
C       -0.64134246      -1.47315659      -0.26321894
O       -1.18385854      -2.67026270      -0.73978782
C       -1.16142304      -0.24525098      -1.06891402
C       -2.44684292       0.27999540      -0.49998901
C       -2.51381785       1.55458450       0.04685539
C       -3.70031551       2.03201054       0.57672934
C       -4.83162239       1.23486390       0.57197391
C       -4.76962776      -0.04287001       0.03985956
C       -3.58546334      -0.51785273      -0.49326739
H        4.93358405       1.73520644      -0.61867605
H        5.61634791       1.84937257       1.00422620
H        5.72237025       0.33428998       0.10559939
H        3.93557720       0.22363567       1.84334152
H        3.14952069       1.62993090       1.12537966
H        3.58080733      -1.06176246      -0.25444849
H        2.84841517       0.35066867      -1.00695218
H        1.02927863       0.30493155       0.74711648
H        1.78013627      -1.12328143       1.44566005
H       -0.92971461      -1.36805593       0.78832068
H       -0.55072821      -3.02465875      -1.38707129
H       -1.31379758      -0.57943716      -2.09763285
H       -0.40774419       0.54371925      -1.07513654
H       -1.63292063       2.18220566       0.05241463
H       -3.73970673       3.02793672       0.99392034
H       -5.75833255       1.60773246       0.98284759
H       -5.64915784      -0.67014818       0.03939042
H       -3.52930076      -1.51670551      -0.89897550
