24
Properties=species:S:1:pos:R:3 energy:=T -41.051244745587=T gnorm:=T 0.003407109408=T xtb:=T 6.6.1=T (8d0f1dd)=T pbc="F F F"
C       -2.04876786       0.57786114      -1.85158995
O       -1.09823949       0.81852645      -0.82327122
N       -1.42656078       0.19749304       0.37908807
C       -2.25351402       0.95631473       1.28685402
C       -0.78279729      -0.92203360       0.75233824
O       -0.97230882      -1.46811557       1.82294138
C        0.25359063      -1.49142080      -0.22531612
O        0.60863028      -2.77584316       0.20363976
C        1.42217735      -0.54652549      -0.22003571
C        2.18856628      -0.19386585       0.84819283
C        3.21167693       0.71931047       0.50978417
C        3.20207572       1.04775350      -0.80605266
S        1.94733565       0.24394398      -1.66354347
H       -1.61091204       1.02536987      -2.73990120
H       -3.00627960       1.05608701      -1.62984979
H       -2.20116883      -0.49230207      -2.01109592
H       -2.39154771       0.34872231       2.17841782
H       -1.75890844       1.89614275       1.55036951
H       -3.22270674       1.17062142       0.83038811
H       -0.15426926      -1.56571294      -1.24002038
H        0.29327313      -2.85309248       1.12252604
H        2.02954933      -0.57522902       1.84100103
H        3.91677931       1.11246680       1.21995532
H        3.85432527       1.71352451      -1.33481990
