31
Properties=species:S:1:pos:R:3 energy:=T -47.881799774025=T gnorm:=T 0.001690669781=T xtb:=T 6.6.1=T (8d0f1dd)=T pbc="F F F"
C        0.34672370       2.07053339       2.95829399
N        0.01237023       1.29142932       1.79770280
C        0.35338102       1.64863502       0.52001821
O        0.95097287       2.65572637       0.21870833
C       -0.15892298       0.55952550      -0.41321150
C       -0.86837188       1.05602069      -1.71719026
C        0.24168200       0.39062608      -2.48784870
C        0.88697740      -0.04623961      -1.33411073
C        2.05312605      -0.76488916      -1.35117904
C        2.55927365      -1.03644025      -2.62389361
C        1.92181448      -0.60489910      -3.77673484
C        0.73425042       0.12888223      -3.74054969
C       -0.86656685      -0.37070923       0.51199428
C       -0.71405078       0.10879478       1.81873901
C       -1.24877855      -0.56599784       2.89881658
C       -1.94508418      -1.74055342       2.64274760
C       -2.09744318      -2.22106158       1.35301020
C       -1.55328291      -1.53877476       0.27027429
H        0.91030169       2.93916522       2.61816514
H        0.95949526       1.48542474       3.64780384
H       -0.55765735       2.40249568       3.47287565
H       -0.89372998       2.14090791      -1.80337979
H       -1.86474144       0.64327068      -1.86475964
H        2.55837653      -1.10546585      -0.46000592
H        3.47736966      -1.59921510      -2.71381083
H        2.36108230      -0.84435648      -4.73464896
H        0.25349587       0.45796182      -4.64939820
H       -1.13196565      -0.19862095       3.90636787
H       -2.37341716      -2.28827004       3.46899266
H       -2.64302909      -3.13737447       1.18549686
H       -1.66365217      -1.91653158      -0.73534461
