31
Properties=species:S:1:pos:R:3 energy:=T -46.462057642433=T gnorm:=T 0.001896850036=T xtb:=T 6.6.1=T (8d0f1dd)=T pbc="F F F"
C        3.16969660      -0.82993056      -1.41146863
C        2.08694847      -0.85686904      -0.32918615
N        2.69251957      -1.07686617       0.96755346
C        1.73588402      -1.43850550       2.00845117
C        1.26286214      -2.79939492       1.82217458
C        0.86508530      -3.91629934       1.65809572
C        1.32467807       0.46884581      -0.36679823
O        1.52419974       1.37384486       0.40479208
O        0.44316585       0.50362450      -1.36269147
C       -0.36566562       1.68441233      -1.48461750
C       -1.64163007       1.51393054      -0.70385303
C       -2.68523318       0.76757247      -1.23677240
C       -3.84257897       0.56489297      -0.50693041
C       -3.96479666       1.10356412       0.76313373
C       -2.92441227       1.84064676       1.30254468
C       -1.76481690       2.04347562       0.57391687
H        3.86372759      -0.01297975      -1.22616959
H        3.71986019      -1.76600470      -1.38659126
H        2.71972763      -0.70078726      -2.39214290
H        1.38534347      -1.67225771      -0.53430938
H        3.17746430      -0.22705229       1.24461663
H        2.25232508      -1.38197427       2.97164211
H        0.86325142      -0.76148132       2.04483853
H        0.52838237      -4.90048698       1.52171684
H       -0.56411496       1.79126654      -2.55331428
H        0.20515441       2.54226348      -1.11549015
H       -2.58490450       0.34411088      -2.22550802
H       -4.64988722      -0.01496916      -0.92944306
H       -4.86907216       0.94630570       1.33230826
H       -3.01475476       2.25793384       2.29462187
H       -0.94840795       2.60916755       0.99844093
