38
Properties=species:S:1:pos:R:3 energy:=T -50.803214379652=T gnorm:=T 0.002171080859=T xtb:=T 6.6.1=T (8d0f1dd)=T pbc="F F F"
C        1.54054467       1.81121739       0.81248761
C        2.27714404       0.77149049      -0.03474120
C        3.75240939       0.77192816       0.36323480
C        2.16438790       1.17577619      -1.50584151
Si       1.53276082      -0.97523594       0.24165150
C        2.37330622      -2.31290840      -0.82846110
C        1.60780234      -1.52970576       2.06697137
O       -0.02317746      -0.73907875      -0.22784076
C       -1.09851595      -1.62547303      -0.11637399
C       -2.33116175      -0.96499273      -0.69753466
O       -3.48275758      -0.91243264       0.09041759
C       -2.81231817       0.29795566      -0.10852108
C       -3.38499465       1.36671589      -0.95569762
C       -4.67241633       1.60667776      -1.20875775
C       -5.80191003       0.86475709      -0.63816124
O       -6.95435357       1.16292645      -0.83333168
H        1.95217003       2.80494845       0.63713661
H        0.48391312       1.82768039       0.55751215
H        1.63795011       1.58717397       1.87215472
H        4.31425503       0.05733178      -0.23288462
H        4.18857479       1.75857396       0.20946218
H        3.87063664       0.50891690       1.41139496
H        1.12564755       1.15709609      -1.82526906
H        2.73157852       0.49653173      -2.13750684
H        2.55388235       2.18281367      -1.65417505
H        2.21773028      -2.12618752      -1.88707520
H        3.44351929      -2.35404466      -0.65599103
H        1.97451749      -3.29949176      -0.60918337
H        1.09537982      -0.82717327       2.71816527
H        2.62731536      -1.62484881       2.42475342
H        1.13077693      -2.49800332       2.19404842
H       -1.28410785      -1.86240351       0.93719179
H       -0.87927484      -2.55595936      -0.64978926
H       -2.50915976      -1.12449181      -1.75753523
H       -2.25857956       0.66503427       0.75569655
H       -2.62511047       2.00865986      -1.38754997
H       -4.94961213       2.42969142      -1.85464107
H       -5.52875561       0.01853572       0.01150135
