29
Properties=species:S:1:pos:R:3 energy:=T -41.161397516885=T gnorm:=T 0.002014058387=T xtb:=T 6.6.1=T (8d0f1dd)=T pbc="F F F"
C        4.17689224       0.25688848      -1.37566488
C        3.68618038      -0.31693323      -0.04699095
O        4.14027598      -1.65937469       0.02201304
C        2.17934848      -0.22603277       0.04356508
C        1.56082237       0.70454533       0.86664325
C        0.18227181       0.77670524       0.93569188
C       -0.61264930      -0.07465176       0.17415018
C        0.01161268      -1.00428535      -0.65408839
C        1.38834597      -1.08284397      -0.71205022
C       -2.08036077      -0.01214186       0.25146188
C       -2.72056964       0.06129034       1.48611241
C       -4.10036478       0.08993786       1.56265973
C       -4.86265901       0.05818698       0.40690835
C       -4.23533612      -0.00236766      -0.82643972
C       -2.85567120      -0.04285340      -0.90438896
H        3.73900019      -0.30199620      -2.19784890
H        5.25816137       0.16874810      -1.43147212
H        3.89156278       1.30211878      -1.45924822
H        4.13147706       0.26378375       0.77947244
H        3.81871834      -2.05529856       0.83913739
H        2.16270534       1.37887305       1.45987636
H       -0.28414747       1.51240800       1.57505605
H       -0.59025744      -1.68412663      -1.23960610
H        1.86545849      -1.82108984      -1.33991854
H       -2.13041731       0.07192838       2.39146138
H       -4.58367774       0.13357742       2.52816566
H       -5.94061337       0.07986243       0.46727521
H       -4.82459551      -0.01987361      -1.73177059
H       -2.37151284      -0.07902259      -1.87016072
