25
Properties=species:S:1:pos:R:3 energy:=T -42.310492927729=T gnorm:=T 0.001683482762=T xtb:=T 6.6.1=T (8d0f1dd)=T pbc="F F F"
O        0.52420141      -2.32098279       0.97625424
C        0.31532256      -1.43244791      -0.10116153
C       -0.97172003      -0.64720215       0.06248521
C       -1.17262379       0.08970663       1.22392064
C       -2.33441264       0.81492656       1.40559297
C       -3.30359152       0.80361657       0.41375404
Cl      -4.76126425       1.70835236       0.63210493
C       -3.12020234       0.07472815      -0.74964556
C       -1.95290578      -0.64939720      -0.91872639
C        1.46754411      -0.45717005      -0.17672452
C        1.53914594       0.46348684      -1.21602594
C        2.58891863       1.36397057      -1.24278862
C        3.52733526       1.31003133      -0.22167700
N        3.46849772       0.43743841       0.76745639
C        2.46685051      -0.42307849       0.78888188
H       -0.24133909      -2.89795395       1.05422205
H        0.27327176      -1.99712931      -1.04933922
H       -0.40857055       0.08676358       1.98690241
H       -2.48936244       1.38737927       2.30631882
H       -3.88337831       0.07099582      -1.51208788
H       -1.81005785      -1.22107183      -1.82468974
H        0.78157114       0.47340704      -1.98756796
H        2.67605001       2.09123523      -2.03516688
H        4.36401006       1.99532700      -0.19228559
H        2.45670950      -1.12493169       1.60999324
