43
Properties=species:S:1:pos:R:3 energy:=T -53.528117685195=T gnorm:=T 0.002741854528=T xtb:=T 6.6.1=T (8d0f1dd)=T pbc="F F F"
C       -1.62768514      -0.88720636      -0.45241684
C       -0.88573896      -2.15904800      -0.13444206
C        0.38455211      -2.26396487      -0.98252370
C        1.60732418      -1.52380530      -0.42921399
O        2.72493610      -1.78766727      -1.28261570
C        1.99546493      -2.07191181       0.96970106
O        3.28754314      -1.66706061       1.32269557
C        1.53343984       0.00971195      -0.35804892
C        1.57620984       0.75073370      -1.69785697
C        1.24503322       2.20645794      -1.32487830
C        0.78645987       2.17290336       0.14794954
C       -0.26721967       3.21658716       0.49456811
C        0.36677567       0.70319789       0.36438007
C       -0.99987390       0.46787957      -0.24289773
C       -2.20632046       0.05842272       0.56781380
C       -3.52796278       0.72108228       0.23225958
C       -2.09106773      -0.22909162       2.04816636
H       -2.19922497      -0.97658704      -1.37191498
H       -1.53377393      -3.00775263      -0.36732435
H       -0.63380177      -2.22450107       0.92064652
H        0.18026018      -1.89346212      -1.98895990
H        0.66301804      -3.32006447      -1.07436481
H        2.76371098      -2.73562027      -1.45849689
H        1.93563796      -3.17441596       0.95328721
H        1.32441080      -1.70087868       1.74530697
H        3.80107430      -1.63205486       0.49991192
H        2.44114072       0.29289324       0.18939042
H        2.54904020       0.65182387      -2.17482877
H        0.82662947       0.34153468      -2.37489984
H        0.45397977       2.60146454      -1.96290832
H        2.11234458       2.85508107      -1.44374485
H        1.65539917       2.35994150       0.78756459
H        0.15117408       4.21508676       0.38548772
H       -0.59432747       3.09136210       1.52451697
H       -1.13742382       3.14251935      -0.15153648
H        0.36417956       0.45988932       1.42700459
H       -1.21327438       1.16142018      -1.04640303
H       -3.60853286       0.92116617      -0.83367636
H       -4.35941340       0.08068090       0.52405428
H       -3.62199540       1.66546496       0.76693069
H       -2.14150081       0.70235782       2.61063084
H       -1.16371175      -0.73039992       2.30582456
H       -2.91688949      -0.86417017       2.36586138
