37
Properties=species:S:1:pos:R:3 energy:=T -48.501611563149=T gnorm:=T 0.001016318837=T xtb:=T 6.6.1=T (8d0f1dd)=T pbc="F F F"
C        5.50667059       1.16644493       0.32678696
C        4.01005970       1.41250627       0.47274599
C        3.20200671       0.12878398       0.29929682
C        1.70588712       0.38598261       0.44729428
C        0.85818171      -0.83437543       0.30903443
C        1.20013736      -2.08282499       0.02840731
C        0.01682143      -3.00077182      -0.04968305
C       -1.12774891      -2.16783524       0.54684433
C       -0.64019402      -0.70182160       0.46138569
C       -1.25610598      -0.03026102      -0.75880470
O       -0.65576371       0.07832914      -1.80452926
C       -2.64980872       0.47259058      -0.61736691
C       -3.43475704       0.28235115       0.51903147
C       -4.71548434       0.80080143       0.57372612
C       -5.23107280       1.51404268      -0.49673729
C       -4.46282049       1.70215589      -1.63466196
C       -3.18461507       1.18377408      -1.69330377
H        6.06157677       2.09333136       0.45374895
H        5.73180674       0.76326294      -0.65809797
H        5.85088157       0.45479986       1.07438163
H        3.68850026       2.14313932      -0.27298718
H        3.80785312       1.83605687       1.45977443
H        3.39734359      -0.29134498      -0.68871384
H        3.51884433      -0.60281127       1.04593218
H        1.38590730       1.10976538      -0.30949441
H        1.51010584       0.84038721       1.42577548
H        2.19455555      -2.44722308      -0.15745997
H       -0.18349986      -3.25840002      -1.09341726
H        0.17677929      -3.93100679       0.49795614
H       -2.06573339      -2.31926947       0.01327166
H       -1.28105322      -2.43876989       1.59229611
H       -0.89976946      -0.12601752       1.35285598
H       -3.05947206      -0.27655277       1.36199785
H       -5.31581304       0.64937124       1.45914390
H       -6.23033858       1.92025738      -0.44325158
H       -4.86203612       2.25320729      -2.47331190
H       -2.56783219       1.31794429      -2.56986667
