40
Properties=species:S:1:pos:R:3 energy:=T -51.672122196603=T gnorm:=T 0.003156776499=T xtb:=T 6.6.1=T (8d0f1dd)=T pbc="F F F"
C       -1.53925315      -3.69689835       1.52473213
C       -1.13556919      -2.23785536       1.35438685
C       -1.72486859      -1.65205189       0.07318289
C       -1.43104743      -0.14912571      -0.11813610
C       -1.86369948       0.27382375      -1.53829678
C       -1.67358174       1.76790337      -1.77416304
C       -2.47539624       2.57445626      -0.75991742
C       -2.07573281       2.17706048       0.66421058
C       -2.27716528       0.68998716       0.83622032
O       -3.06890533       0.22601158       1.61485044
C        0.02316242       0.12719151       0.15955923
C        1.03193495      -0.04174663      -0.69016892
C        2.43359372       0.20357156      -0.36750583
C        2.82081414       1.07994145       0.64694256
C        4.15646075       1.28580121       0.93184448
C        5.13535079       0.62045451       0.21200198
C        4.76636905      -0.24571557      -0.80393189
C        3.43070498      -0.44552803      -1.09613965
H       -2.62024162      -3.78300068       1.61091051
H       -1.21423933      -4.28675591       0.66936484
H       -1.08874195      -4.11447052       2.42156534
H       -1.49348188      -1.66352234       2.20980470
H       -0.04582970      -2.16317077       1.32344459
H       -2.80903992      -1.78548668       0.09174368
H       -1.32760056      -2.19794959      -0.78618109
H       -1.30042495      -0.29813385      -2.27694773
H       -2.91958343       0.01916907      -1.66148133
H       -0.61430360       2.01997701      -1.68854839
H       -1.99950565       2.02016208      -2.78574790
H       -3.54194613       2.38619969      -0.89882420
H       -2.30096926       3.64224301      -0.90157884
H       -2.68025192       2.71122407       1.39898072
H       -1.02352695       2.42251567       0.81954243
H        0.23772531       0.43493013       1.17541693
H        0.84889207      -0.40511281      -1.69027652
H        2.07032001       1.61908690       1.20556898
H        4.43646044       1.97214574       1.71798111
H        6.17881853       0.78153649       0.43787541
H        5.52419470      -0.76496939      -1.37236076
H        3.15010423      -1.12389862      -1.88992434
