29
Properties=species:S:1:pos:R:3 energy:=T -45.373474230289=T gnorm:=T 0.003243291396=T xtb:=T 6.6.1=T (8d0f1dd)=T pbc="F F F"
C       -4.07442528       0.37523626       0.83317147
C       -3.36374380      -0.72321689       0.66643411
C       -2.54535171      -1.02730434      -0.56359965
C       -1.03460906      -0.93708043      -0.25957366
C       -0.69574908       0.39544698      -0.85521238
C        0.53442760       1.12055094      -0.62449123
C        0.69307779       2.41738934      -0.91259466
C        1.63868376       0.33563191      -0.02280665
C        2.12563459      -0.79995585      -0.66164473
C        3.16342755      -1.52491224      -0.10529043
C        3.72354751      -1.12576967       1.09696462
C        3.25262954       0.01051521       1.73278127
C        2.21828588       0.74000195       1.17456602
N       -1.68313329       0.83545188      -1.57942113
O       -1.82807205       1.84821950      -2.24029076
O       -2.76693373      -0.08561544      -1.59615928
H       -4.13410622       1.12864471       0.06603385
H       -4.63502112       0.55768001       1.73293152
H       -3.30638917      -1.49039888       1.42639371
H       -2.82845861      -2.00718422      -0.96229791
H       -0.83446439      -0.96544731       0.81260361
H       -0.47013484      -1.74598658      -0.72894014
H        1.63092695       2.90793528      -0.71800556
H       -0.09031707       3.00390931      -1.35735415
H        1.70555089      -1.09914424      -1.61145010
H        3.53727213      -2.40284915      -0.61145071
H        4.52957155      -1.69631588       1.53389285
H        3.69185726       0.32857253       2.66716340
H        1.84601643       1.62599532       1.66764670
