31
Properties=species:S:1:pos:R:3 energy:=T -49.742264037514=T gnorm:=T 0.002799670231=T xtb:=T 6.6.1=T (8d0f1dd)=T pbc="F F F"
C        5.01447856       0.77333020       0.11093792
O        4.32476819      -0.15443536      -0.69204755
C        3.02564182      -0.42945870      -0.39694878
C        2.29039715       0.17850737       0.61611876
C        0.97761090      -0.19760002       0.83523558
C        0.37433930      -1.17822318       0.06248477
C        1.10730736      -1.77425076      -0.95640118
C        2.41493308      -1.40461392      -1.18720765
C       -1.05006932      -1.59690868       0.36559613
O       -1.18103669      -2.05643044       1.69761033
C       -1.97807271      -0.42697218       0.14043926
C       -2.07473407       0.12470817      -1.13365703
C       -2.90631100       1.19836365      -1.37023676
C       -3.65670655       1.73689422      -0.32273293
C       -3.55736919       1.19035873       0.95620916
C       -2.71975055       0.11557272       1.18057360
C       -4.51861269       2.83097044      -0.55948098
N       -5.22635259       3.71380718      -0.74658905
H        4.57997270       1.77499509       0.03322620
H        5.02773518       0.46247147       1.16026544
H        6.03333957       0.79214269      -0.27178762
H        2.72523909       0.94383840       1.23875461
H        0.41118126       0.27178046       1.62609797
H        0.65383153      -2.53796066      -1.57232536
H        2.99330364      -1.86458272      -1.97254168
H       -1.33850123      -2.40364263      -0.33161646
H       -0.49288591      -2.70619642       1.86297892
H       -1.49141656      -0.29281609      -1.94142396
H       -2.98438219       1.62543540      -2.35902774
H       -4.13866878       1.61039811       1.76375130
H       -2.63920930      -0.31948255       2.16374481
