37
Properties=species:S:1:pos:R:3 energy:=T -54.664200119335=T gnorm:=T 0.002766803406=T xtb:=T 6.6.1=T (8d0f1dd)=T pbc="F F F"
C        3.33514843       0.70442072      -0.38203186
C        2.99445360      -0.11915165       0.85460604
C        1.83961834       0.43259983       1.70078686
C        2.08133444       1.87312695       2.14316080
C        0.45619770       0.33326788       0.99751357
O        0.38224429       1.21980236      -0.09560573
C       -0.90134451       1.78026707      -0.32346573
C       -1.93870399       0.75668317      -0.71151638
C       -2.81392605       0.23734815       0.23281925
C       -3.71048476      -0.75936551      -0.11297354
C       -3.73799675      -1.24974318      -1.40659053
C       -2.87650004      -0.72974165      -2.35870676
C       -1.98587814       0.27010715      -2.01315323
C        0.17150157      -1.08594372       0.61911073
C        0.16313516      -1.54218489      -0.62887578
N       -0.16444150      -2.89476785      -0.93055323
O       -0.28668699      -3.17419808      -2.10631398
O       -0.32671106      -3.67194470      -0.01219779
H        2.44300150       0.89234391      -0.96954761
H        4.05464534       0.16605271      -0.99439792
H        3.77431466       1.65846701      -0.10362674
H        3.87751350      -0.17987183       1.49562346
H        2.74302142      -1.13751117       0.55047033
H        1.76506702      -0.19971888       2.59382640
H        2.03382205       2.54012935       1.28794273
H        3.05958144       1.96215183       2.60839171
H        1.32776017       2.18188804       2.86518485
H       -0.29356559       0.62878708       1.75148677
H       -0.74286689       2.49334711      -1.13623318
H       -1.22972135       2.32713165       0.57321870
H       -2.80057286       0.61696892       1.24532730
H       -4.38545481      -1.15524413       0.63113844
H       -4.43058512      -2.03344336      -1.67380254
H       -2.89366223      -1.10915299      -3.36886688
H       -1.31302304       0.67522724      -2.75538239
H       -0.02810377      -1.77321191       1.43124952
H        0.35786884      -0.93492273      -1.49801566
