32
Properties=species:S:1:pos:R:3 energy:=T -46.732664992425=T gnorm:=T 0.002858895130=T xtb:=T 6.6.1=T (8d0f1dd)=T pbc="F F F"
C        3.84854694       1.10203419       0.51449397
C        2.59435546       0.25435837       0.70684629
C        2.90948337      -0.96915117       1.56330476
C        2.02055580      -0.19538479      -0.64657217
C        1.58924922       1.00073576      -1.53290565
S       -0.02478576       0.56305160      -2.24381326
C       -0.11385094      -0.82604299      -1.14026696
C       -1.38441256      -1.60174454      -1.07536464
C       -2.43775997      -0.74211900      -0.42559479
C       -3.36805087      -0.05283253      -1.19086568
C       -4.30782310       0.76731341      -0.59289945
C       -4.31125433       0.90290751       0.78539568
Cl      -5.48237976       1.92674516       1.54102862
C       -3.38583535       0.22863285       1.56613354
C       -2.45270968      -0.58803489       0.95496190
N        0.89809532      -1.06469585      -0.44534116
H        3.63406563       2.02015598      -0.02679308
H        4.60038101       0.54347058      -0.04006384
H        4.26592629       1.36718384       1.48277029
H        1.82746682       0.85121591       1.21373089
H        2.02906588      -1.59683173       1.65466722
H        3.23214083      -0.66144571       2.55405823
H        3.70333924      -1.55457618       1.10601323
H        2.78781405      -0.78792199      -1.16461839
H        1.44429163       1.90590492      -0.94255982
H        2.28956541       1.20323093      -2.33951920
H       -1.20456814      -2.50220258      -0.48770297
H       -1.69117530      -1.87389674      -2.08597936
H       -3.35856886      -0.15239322      -2.26599802
H       -5.03104260       1.29901815      -1.19077088
H       -3.39671165       0.34418676       2.63852085
H       -1.72341410      -1.11087190       1.55570383
