35

C      2.980160    2.244330   -0.745369
O      2.191610    1.173223   -0.225040
C      2.667490    0.631077    0.928550
O      3.707230    0.976910    1.480339
C      1.786082   -0.505925    1.455988
C      2.559304   -1.815543    1.371632
C      2.043767   -2.409876    0.100873
C      2.621246   -3.341862   -0.664011
C      0.741521   -1.764204   -0.239869
O      0.013513   -2.137545   -1.140485
N      0.584873   -0.724852    0.671934
C     -0.493720    0.128520    0.810267
O     -0.481671    1.076800    1.588584
O     -1.535974   -0.199513    0.011840
C     -2.752128    0.588277   -0.015261
C     -3.458313    0.568324    1.344444
C     -3.648970   -0.114577   -1.045424
C     -2.477090    2.016512   -0.497911
H      3.035975    3.065299   -0.023835
H      2.493367    2.613213   -1.652221
H      3.981179    1.888746   -1.008476
H      1.514191   -0.252382    2.487349
H      2.283431   -2.468465    2.208128
H      3.646366   -1.690071    1.368089
H      3.574576   -3.785110   -0.396896
H      2.145720   -3.686932   -1.579184
H     -3.565316   -0.458479    1.711846
H     -4.453418    1.022033    1.283236
H     -2.895548    1.116618    2.105862
H     -3.159693   -0.153233   -2.025745
H     -3.837047   -1.154385   -0.753316
H     -4.612833    0.392488   -1.159579
H     -3.409228    2.563825   -0.675219
H     -1.895885    2.007587   -1.426886
H     -1.894769    2.589173    0.230314
