36

C     -3.820899    0.420888   -0.038087
C     -2.529235    0.560816   -0.857761
C     -2.664826   -0.307365   -2.121537
C     -1.228756    0.282825   -0.035939
C     -1.194645    1.055862    1.288926
N     -0.009693    0.661418   -0.823168
C      0.965124   -0.441522   -0.668240
C      1.721939   -0.677877   -1.981862
N      0.139601   -1.572418   -0.371351
C     -1.030263   -1.203217    0.244242
O     -1.750609   -1.948834    0.884501
C      2.000473   -0.206293    0.448195
N      2.416611   -1.299172    1.151511
C      3.338902   -1.105515    2.119653
C      3.891926    0.126249    2.422400
C      3.477907    1.230163    1.688509
C      2.525134    1.066023    0.686683
H     -4.698144    0.617801   -0.664847
H     -3.855488    1.142335    0.783665
H     -3.931536   -0.584644    0.378276
H     -2.489061    1.607162   -1.193498
H     -1.811781   -0.196864   -2.795691
H     -2.767346   -1.368529   -1.872098
H     -3.556366   -0.017235   -2.688863
H     -1.983202    0.720729    1.971421
H     -1.316143    2.132291    1.123840
H     -0.255371    0.904342    1.831299
H     -0.263895    0.687941   -1.806167
H      1.035008   -0.903156   -2.806727
H      2.316796    0.196776   -2.269576
H      2.406175   -1.531207   -1.897137
H      0.576978   -2.410144   -0.007533
H      3.632975   -1.998308    2.663857
H      4.629512    0.223320    3.211016
H      3.891689    2.213631    1.894362
H      2.190509    1.921730    0.107728
