34

C     -0.096963   -0.638824    1.380731
C     -0.782459   -1.474991    0.298057
C     -2.085738   -0.727489   -0.024507
C     -3.325881   -1.534922    0.351568
O     -2.127957   -0.454586   -1.436409
C     -2.715840    0.837775   -1.653968
C     -2.458577    1.559334   -0.364645
O     -2.607133    2.762895   -0.193227
C     -2.006706    0.620331    0.701810
C     -0.564827    0.784655    1.145275
C      0.464176    1.281937    0.152469
C      1.732236    0.583837    0.626643
O      2.589450    0.381768   -0.486252
C      3.828016   -0.209013   -0.104335
C      4.694525   -0.339520   -1.341640
O      1.320086   -0.654710    1.227236
H     -0.365137   -1.001577    2.379082
H     -0.144349   -1.579955   -0.588144
H     -0.960828   -2.489301    0.672955
H     -3.369511   -2.465597   -0.225220
H     -3.333810   -1.785684    1.417256
H     -4.243318   -0.982374    0.120688
H     -3.788465    0.727816   -1.827898
H     -2.213400    1.323215   -2.492115
H     -2.688702    0.652040    1.558289
H     -0.495372    1.379508    2.064033
H      0.230089    0.987836   -0.877483
H      0.569705    2.371448    0.153099
H      2.234610    1.187636    1.392628
H      3.655381   -1.200059    0.328679
H      4.331259    0.424298    0.634565
H      4.197996   -0.958291   -2.096443
H      4.866960    0.641371   -1.796870
H      5.660485   -0.789468   -1.095907
