40

C     -4.034654   -2.373266    0.386464
C     -3.006590   -1.368901   -0.111624
C     -2.958572   -0.126760    0.786441
C     -1.958381    0.942930    0.279121
C     -2.135355    2.210807    1.094289
C     -2.631904    3.362213    0.621520
C     -0.498760    0.481013    0.323779
N     -0.183986   -0.341804    1.356803
C      1.086349   -0.781499    1.446034
C      2.119609   -0.465931    0.566782
C      3.510088   -1.036887    0.784998
C      3.703337   -2.490336    1.162750
C      4.082797   -2.025231   -0.207998
C      1.794552    0.434712   -0.478577
C      2.772244    0.874170   -1.400138
C      2.473392    1.766147   -2.429561
C      1.183942    2.250998   -2.561987
C      0.196928    1.840348   -1.665759
C      0.467626    0.927965   -0.613389
H     -3.791890   -2.713266    1.398334
H     -4.057748   -3.248693   -0.269855
H     -5.037297   -1.934248    0.402027
H     -3.261047   -1.075187   -1.136634
H     -2.026951   -1.857144   -0.148237
H     -3.965051    0.313128    0.817318
H     -2.724489   -0.425319    1.816771
H     -2.241436    1.134483   -0.762720
H     -1.827933    2.156361    2.138233
H     -2.955639    3.468020   -0.408520
H     -2.726409    4.228863    1.269104
H      1.267958   -1.436830    2.294669
H      4.219487   -0.340774    1.230810
H      4.501290   -2.729520    1.857308
H      2.843331   -3.145838    1.242449
H      5.137671   -1.949686   -0.446067
H      3.465201   -2.349672   -1.038893
H      3.799967    0.526069   -1.322835
H      3.251654    2.082635   -3.118865
H      0.941812    2.953219   -3.355296
H     -0.795141    2.262712   -1.799052
