31

C     -4.635534    1.103578    1.106136
C     -4.150634   -0.141305    0.994625
C     -3.617856   -0.789703   -0.259757
C     -2.148295   -1.196076   -0.137731
C     -1.443892   -0.033977   -0.764126
C     -0.010523    0.246114   -0.623657
C      0.855255   -0.800004   -0.279814
C      2.233584   -0.574445   -0.114042
C      3.112308   -1.616902    0.224913
C      4.477970   -1.376303    0.385205
C      4.983299   -0.091815    0.208777
C      4.124251    0.955019   -0.128349
C      2.748303    0.728885   -0.292947
C      1.871810    1.769796   -0.631031
C      0.503657    1.531637   -0.792293
N     -2.335197    0.619374   -1.459086
O     -2.103602    1.630935   -2.184781
O     -3.668910    0.103137   -1.373756
H     -5.004537    1.474671    2.057660
H     -4.685965    1.781885    0.258355
H     -4.145753   -0.767756    1.885214
H     -4.236529   -1.665138   -0.485571
H     -1.948284   -2.083738   -0.748950
H     -1.824815   -1.382521    0.889805
H      0.471485   -1.808198   -0.147652
H      2.739133   -2.628735    0.366347
H      5.146561   -2.192425    0.646763
H      6.046566    0.097082    0.332250
H      4.537761    1.952139   -0.263261
H      2.246218    2.781705   -0.772353
H     -0.137837    2.373083   -1.042326
