41

C      4.036320    1.685021   -0.872546
C      2.684576    1.489043   -0.179666
C      2.556409    2.472271    0.984515
C      2.540822    0.018475    0.268969
C      1.174158   -0.338688    0.886591
C      1.153197   -1.785934    1.439265
C      1.337763   -2.858432    0.395822
C      2.378070   -3.701084    0.358637
N      0.101673   -0.122450   -0.073754
C     -1.191137    0.080178    0.301213
O     -1.570133    0.251669    1.447991
O     -1.969390    0.039435   -0.803422
C     -3.406526    0.210931   -0.702339
C     -4.043670   -0.907634    0.130356
C     -3.767104    1.601305   -0.167551
C     -3.914326    0.096287   -2.147724
H      4.131771    1.017732   -1.735480
H      4.143367    2.713198   -1.234594
H      4.867113    1.477797   -0.189509
H      1.901950    1.720081   -0.912647
H      3.270310    2.238305    1.781699
H      2.748309    3.497653    0.650356
H      1.549242    2.456992    1.411501
H      3.331398   -0.211909    0.995303
H      2.721274   -0.622135   -0.604236
H      0.984825    0.318291    1.743751
H      0.192744   -1.971470    1.936485
H      1.922491   -1.878366    2.216513
H      0.555178   -2.953685   -0.354079
H      3.177559   -3.656350    1.092193
H      2.449364   -4.462231   -0.413393
H      0.227718   -0.399804   -1.036869
H     -5.137089   -0.880244    0.064684
H     -3.697432   -1.890681   -0.210029
H     -3.778413   -0.831263    1.189191
H     -3.482209    1.723526    0.881964
H     -3.239941    2.381196   -0.728305
H     -4.844060    1.787830   -0.238525
H     -3.644642   -0.875114   -2.579399
H     -3.449794    0.858053   -2.785256
H     -5.001734    0.212209   -2.207675
