19
gdb 2966	3.4284028	1.1676927	1.0084175	2.5166	78.1	-0.20935	0.02049	0.22984000000000002	1231.9837	0.155797	-422.558148	-422.549284	-422.54834	-422.590965	34.315	
C	 1.316729044	 0.8633147177	 0.2018154605	-0.486651
C	-0.0790047797	 0.327830638	 0.2423090146	 0.318723
C	-1.2141311491	 0.9965899893	 0.0089854471	-0.252962
C	-2.4209812694	 0.1558779952	 0.2209396532	 0.41989
O	-3.5267328867	 0.3695685786	-0.5857362842	-0.484676
C	-2.6282897904	-0.3566233372	 1.6254745873	 0.014238
O	-3.9650768565	-0.692695296	 1.8908073518	-0.44069
C	-1.8780484629	-1.2204634762	 0.6283250221	-0.19678
C	-0.3583951439	-1.1267109341	 0.6006886476	-0.327737
H	 1.8009598864	 0.7960800173	 1.1845439865	 0.124575
H	 1.9415207883	 0.2846455921	-0.4910839023	 0.124151
H	 1.337808928	 1.9100561464	-0.1127980882	 0.126142
H	-1.2892607504	 2.0416394917	-0.269003552	 0.094323
H	-4.2938462634	 0.1069926561	-0.05785743	 0.290224
H	-2.095762464	 0.1047748726	 2.4578948834	 0.087473
H	-4.0001331033	-1.5940835686	 2.2278746262	 0.292546
H	-2.3820286257	-2.121265261	 0.2945320263	 0.085187
H	 0.0956783541	-1.3933723462	 1.5654261374	 0.104044
H	 0.0810564548	-1.8067364457	-0.1421995273	 0.107978
