19
gdb 3069	2.4999478	1.6163426	1.2894139	1.8	75.5	-0.23693	0.00261	0.23954	1039.9028	0.158308	-422.555826	-422.547813	-422.546869	-422.587772	31.939	
O	-2.2895741389	-2.067816016	 2.5999960516	-0.457827
C	-2.1466613448	-0.9633513821	 1.7389834017	 0.183519
C	-3.2018625706	 0.1859345678	 1.9031587987	-0.09661
C	-2.2403868989	 0.7938452863	 2.9754218204	-0.264805
C	-1.0929976918	 0.0974253898	 2.1824109127	-0.093562
C	-0.6768311972	 0.9720072609	 0.9836649569	 0.110685
O	 0.2432708387	 0.3008745622	 0.1254780322	-0.44052
C	-1.9134001637	 1.4311599819	 0.238385914	-0.127407
C	-3.1194695561	 1.0492112909	 0.6662582579	-0.06007
H	-2.199137761	-1.7713038661	 3.5113763119	 0.281783
H	-2.0607829162	-1.3853926323	 0.7334146078	 0.068542
H	-4.2183512995	-0.0901167916	 2.1863902716	 0.066755
H	-2.217148356	 1.8827224634	 3.0601221483	 0.104543
H	-2.3838843581	 0.3660638755	 3.9727414489	 0.090219
H	-0.212282108	-0.2677956332	 2.7170378773	 0.071113
H	-0.1102104859	 1.838321353	 1.3501228672	 0.091502
H	-0.2403272973	-0.3989626107	-0.3272368367	 0.278204
H	-1.7696621116	 2.0512706199	-0.6411701027	 0.097366
H	-4.030276753	 1.3398424806	 0.1515700403	 0.09657
