19
gdb 3372	2.4196465	1.8882983	1.2601093	0.8716	74.46	-0.23486	0.06122	0.29608	1023.5687	0.157548	-422.504561	-422.496744	-422.4958	-422.536784	30.615	
O	 0.6253853009	-0.1905651522	 0.644618807	-0.434412
C	-0.6410292198	 0.4062784841	 0.8004111554	 0.12532
C	-1.3388316858	 0.2573792798	 2.1819650133	-0.15361
C	-2.8986396243	 0.3971609465	 2.1846075935	-0.236622
C	-2.7892958006	 1.8552063026	 2.7440674898	-0.325963
C	-1.3157763482	 1.8085684939	 2.3834875018	 0.486461
O	-0.2625088651	 2.5271445122	 3.0094224674	-0.329524
C	 0.4455014886	 2.6324239087	 1.7445197058	-0.11613
C	-0.7044170983	 1.9631291107	 0.9624843831	-0.175378
H	 1.1279814723	-0.0567806953	 1.4549523243	 0.284807
H	-1.2382333304	 0.0425195592	-0.0413258865	 0.089072
H	-0.9231847	-0.4600885381	 2.8926064991	 0.06904
H	-3.3402710819	 0.3422914284	 1.1860612064	 0.105804
H	-3.4204654551	-0.3094538108	 2.8309480174	 0.112013
H	-3.4064518305	 2.6397850884	 2.2975392076	 0.100211
H	-2.9264729241	 1.8719108321	 3.8299114695	 0.116158
H	 0.633819474	 3.6790290988	 1.4846010035	 0.112867
H	 1.402405148	 2.0958218265	 1.7546549404	 0.094731
H	-1.1499785198	 2.5514959943	 0.1601273711	 0.075154
