19
gdb 3570	2.346971	1.7131023	1.157092	4.3844	75.27	-0.25909	0.01639	0.27548	1097.2505	0.157874	-422.594604	-422.586447	-422.585503	-422.627275	31.303	
C	-2.1675487224	-2.6531780724	-1.3303695687	-0.389449
C	-1.5493808261	-1.2620402111	-1.3190369462	 0.107662
O	-0.7065650278	-1.214097407	-0.1458000329	-0.23778
C	-0.1973079902	-0.0488408932	 0.3297423558	 0.396925
O	 0.5997634121	-0.0834760948	 1.2266914588	-0.325151
C	-0.6901258532	 1.2423860889	-0.3060502521	-0.356888
C	-2.1223428404	 1.1820289943	-0.7978620487	-0.048224
C	-3.1522025659	 0.3745737175	-0.0408791258	-0.303901
C	-2.5738023293	-0.1450075002	-1.3339155876	-0.025911
H	-2.8254959664	-2.784009344	-0.4667978619	 0.132103
H	-2.7552497805	-2.7966853418	-2.2420365603	 0.117499
H	-1.3872266777	-3.4173553244	-1.2937465293	 0.132659
H	-0.8959105897	-1.1509649031	-2.1971652378	 0.089761
H	-0.5321051773	 2.0313958625	 0.4333923403	 0.138974
H	-0.0216407705	 1.4643302751	-1.149878579	 0.1332
H	-2.4706034641	 2.0802408517	-1.2977675233	 0.093287
H	-2.8561475899	-0.1042974465	 0.8864103457	 0.136111
H	-4.1777225875	 0.7250741233	-0.0528919956	 0.116345
H	-3.2174696532	-0.1594403946	-2.2081567014	 0.092778
