19
gdb 277	3.4285291	1.3380905	1.2099848	2.1103	73.69	-0.24762	0.07234	0.31996	1078.336	0.158366	-422.52912	-422.521474	-422.52053	-422.561757	29.194	
C	-0.3628480358	 1.077299412	-0.0838920074	-0.128633
O	 0.1496131926	-0.256092267	 0.1187139638	-0.272903
C	 1.5080154097	 0.1952842385	-0.0272449607	-0.121453
C	 1.06036026	 1.6784120308	-0.1140106407	 0.28383
C	 1.4881419159	 2.5262488024	-1.3300255289	-0.309539
C	 2.7007948687	 3.3669939061	-0.860485833	-0.248781
C	 2.470728637	 3.5182285242	 0.6307506871	 0.046235
O	 1.1270114486	 3.8976129626	 0.9643999489	-0.268891
C	 1.4942446201	 2.51436288	 1.0713485513	-0.017444
H	-0.9149473171	 1.1652199722	-1.0293908006	 0.097312
H	-1.0106990035	 1.4030509707	 0.7386201734	 0.10854
H	 2.1289677303	-0.0787916371	 0.8359612265	 0.098512
H	 1.9791068772	-0.194562055	-0.9400647614	 0.095273
H	 1.7121971876	 1.9106360177	-2.2050066533	 0.102432
H	 0.6648138831	 3.1927842747	-1.6002866512	 0.122188
H	 3.6468484283	 2.8351810502	-1.0202566887	 0.105875
H	 2.7727050197	 4.3275245692	-1.3793329848	 0.11299
H	 3.2421926292	 3.9175291932	 1.2842231425	 0.095603
H	 1.4703493286	 2.0988497445	 2.0765515771	 0.098855
