19
gdb 5897	5.7781532	0.6136999	0.5895708	1.8117	78.96	-0.26224	0.0118	0.27403999999999995	1900.5306	0.153716	-422.562003	-422.551434	-422.550489	-422.599152	36.314	
C	 2.9746633983	-0.7928010244	-3.5665555589	-0.385902
C	 3.1835312377	-1.3317777513	-2.1595892161	-0.057915
O	 1.9378059363	-1.7606864375	-1.5669094507	-0.249369
C	 1.2028425676	-0.8123828272	-0.9558707201	 0.451943
O	 1.5191501514	 0.349751181	-0.8780711507	-0.360503
C	-0.0640327511	-1.4102530811	-0.3780207248	-0.319482
C	-0.9460862431	-0.347560753	 0.2969647879	-0.352243
C	-2.1615781001	-0.9189538135	 0.8627076614	 0.282889
C	-3.1559333005	-1.4148466227	 1.32085514	-0.425662
H	 2.4758853808	-1.5340501559	-4.1976306253	 0.126373
H	 2.3717254837	 0.1179697491	-3.5438510889	 0.144453
H	 3.9425313044	-0.55261415	-4.0180963259	 0.122214
H	 3.8061617295	-2.2294721773	-2.1644119458	 0.114779
H	 3.6392416964	-0.5776860531	-1.5137799028	 0.132377
H	-0.6081390183	-1.9192462227	-1.180314718	 0.144049
H	 0.2153817887	-2.1939974564	 0.3340991236	 0.145292
H	-0.3676366092	 0.1592881884	 1.0771128256	 0.1473
H	-1.1987167793	 0.4296788911	-0.432814042	 0.145371
H	-4.0394150332	-1.8367706333	 1.7314029615	 0.194037
