19
gdb 1983	3.1290495	1.4387845	1.2992603	2.3157	74.14	-0.24197	0.07742	0.31939	1041.9641	0.158176	-422.536963	-422.529269	-422.528324	-422.569098	30.355	
O	 0.4788645828	 0.2021415767	 0.7287846599	-0.469405
C	-0.8081815486	 0.6338598153	 0.405721268	 0.409376
C	-1.993744107	-0.1606556757	 0.8951183509	-0.360709
C	-1.6813126408	 1.1973730416	 1.4988809433	-0.087306
C	-2.4645187452	 2.374140987	 0.9625167311	-0.091704
C	-1.8266092106	 3.7615145762	 1.1735192355	-0.085931
O	-1.3418944858	 3.7993473127	-0.1838537978	-0.289512
C	-2.004946709	 2.5566514556	-0.5166746445	 0.138112
C	-1.0093519607	 1.4413220758	-0.878884258	-0.319988
H	 0.6798887074	-0.5691724418	 0.18773399	 0.28194
H	-2.8657234459	-0.2675101007	 0.2549183166	 0.104838
H	-1.7748199858	-1.0219496305	 1.5167260472	 0.11336
H	-1.3166488122	 1.2192945685	 2.520276483	 0.096529
H	-3.5381451777	 2.3131373903	 1.1543938046	 0.076563
H	-2.5392348616	 4.5722418278	 1.3727223552	 0.095328
H	-1.0111332304	 3.8131545363	 1.90548562	 0.103353
H	-2.7794812738	 2.7176416514	-1.2748675241	 0.070286
H	-1.3705914001	 0.8214646458	-1.7080534171	 0.090252
H	-0.0623964851	 1.8976621975	-1.1803891836	 0.124618
