13
000365
C 1.1265848466307693 2.0491913999076923 0.0030602794000000053
O 1.0705381799307692 0.6186682927076924 0.08100806740000001
C -0.15922088906923082 0.07954429110769246 -0.022151391999999992
O -1.168046990469231 0.7225477730076925 -0.1705260076
C -0.09709485526923078 -1.4431163123923079 0.07395741680000001
N -1.3772258327692306 -2.1201871714923075 -0.026201296199999995
H 2.1798419402307694 2.3117965807076923 0.1023141951
H 0.7336304496307693 2.3987197975076926 -0.9550784943999999
H 0.5417569825307692 2.5022712798076925 0.8076262215000001
H 0.5792560648307692 -1.8024209020923077 -0.7106569499
H 0.39001869513076926 -1.7008577279923078 1.0218195185999999
H -1.997108684569231 -1.7614744865923075 0.6953075581
H -1.8229299067692306 -1.8546828141923077 -0.9004791167999999
