19
001084
C -0.4639827434157895 1.4869622539842104 0.1910472098
C -0.4060372032157895 -0.04938971371578948 0.168949887
C 0.3023575780842105 -0.5661334576157895 1.4320319476
C -1.8325583510157895 -0.6208871135157894 0.10436920549999999
C 0.35688027978421055 -0.5322023678157894 -1.1009174699
C 1.7380871655842105 -0.07467618121578948 -1.1966206992
C 2.8765635041842104 0.3062678627842105 -1.2691049869
H 0.5407085523842106 1.9189392459842105 0.2069588992
H -0.9840353515157895 1.8759371746842106 -0.6917040658
H -1.0013012472157894 1.8402768072842106 1.0774653659
H -0.22592580581578947 -0.23675883401578948 2.3329804613
H 0.3362181135842105 -1.6614187693157894 1.4464883987000001
H 1.3305738264842106 -0.1971731348157895 1.4859220514
H -2.3615140115157893 -0.27222297781578947 -0.7897611032
H -1.8224382555157894 -1.7164594633157895 0.08314874779999999
H -2.41495723581579 -0.31024910561578944 0.9779940404999999
H 0.34141914618421054 -1.6299747833157894 -1.1266568337
H -0.19252335761578948 -0.1990216569157895 -1.9915071790999999
H 3.8824653963842106 0.6381842142842106 -1.3410838769
