13
002329
O 0.8493086703923076 1.4882150681153845 -0.5274246221769231
C 1.1248784422923077 0.15430560321538456 -0.23889544757692305
C 1.0371305308923078 -0.40595771868461544 1.1558690586230769
C -0.0003205287076923913 -0.7864963191846155 0.12899077592307695
O -1.2648603966076921 -0.18810431338461542 0.33192340512307694
C -1.9314798281076921 0.17873184121538457 -0.794095491276923
O -3.0013843132076925 0.7035356490153846 -0.751300954176923
H 0.2566254587923076 1.8385036419153846 0.14634391382307693
H 1.9035691462923077 -0.2157612080846154 -0.896812668676923
H 1.7523668157923078 -1.1556523288846154 1.4747798619230768
H 0.6963142943923077 0.2591649252153846 1.9433802334230768
H -0.04343216310769238 -1.8011962915846156 -0.25536041257692305
H -1.3787161291076924 -0.06928854888461544 -1.7173976523769232
