17
002930
C 0.9554132321294119 2.240077691305882 0.26554619205294105
O 0.9812545997294119 0.8625414366058822 0.550352070452941
C -0.2809665321705881 0.2221312757058822 0.42876650785294107
C -0.6450707971705882 -0.08130793839411776 -1.0546901085470588
C -0.34262142977058807 -1.5517737118941177 -1.2054003545470588
C -0.08309215147058824 -2.1340370307941177 -0.037010935047058935
C -0.15970394787058817 -1.1614673250941179 1.1124305409529411
H 1.9644766946294119 2.624575134505882 0.43480681985294106
H 0.6725116339294118 2.4547566293058822 -0.7762714688470589
H 0.25500162692941186 2.777532931205882 0.925344583052941
H -1.045204292870588 0.8501531309058822 0.909379210252941
H -1.7019330453705883 0.13269425340588226 -1.2647246268470589
H -0.05996318767058817 0.5451947468058822 -1.737767791147059
H -0.35697809867058816 -2.053227355994118 -2.166885329947059
H 0.1432594867294118 -3.1850698939941178 0.10386840575294104
H 0.7271252602294118 -1.172943540694118 1.7547881147529412
H -1.0235090512705882 -1.3698304328941178 1.757468169952941
