12
003853
N 0.6350837759916668 1.6726949664583333 0.1047137835
C 0.5351956046916668 0.2898369122583334 0.0371065189
C -0.5741932422083331 -0.5332505753416665 0.025733767700000004
N -1.9153324456083332 -0.08613695724166662 -0.0029054680999999957
N -0.15067657470833318 -1.8297136142416666 0.029101880400000005
N 1.1462609718916668 -1.8688579401416667 0.034797580700000004
N 1.5756584823916668 -0.5727512556416666 0.056177454800000005
H 1.2901689374916667 2.0733811362583334 -0.5562674805000001
H -0.2838550295083332 2.0805333816583333 -0.031419807599999995
H -2.3728029649083333 -0.23513748774166662 0.8924381400000001
H -2.4480730978083334 -0.6118865208416666 -0.6891183393
H 2.5625655822916666 -0.3787120454416666 0.09964196950000001
