11
003925
O -1.6643203532272728 -2.394924197727273 -0.0011152127818181813
C -1.5964572131272727 -1.2018503955272728 0.007625526318181819
N -0.4054257531272727 -0.4590375342272728 0.0007155904181818187
C -0.32361917362727266 0.914572532772727 0.010674462618181817
C 1.0048946682727273 1.229020032872727 -0.0010280944818181813
C 1.6667837131727274 -0.03235797612727298 -0.018078188881818183
N 0.8227699320727273 -1.0455008063272728 -0.017025957681818183
H -2.4690530981272727 -0.5224441830272728 0.022211979818181817
H -1.2118535806272728 1.526110475972727 0.02497568771818182
H 1.4461257345727272 2.2122431597727275 0.002021127918181819
H 2.730155123772727 -0.22583110842727283 -0.03097692098181818
