15
004116
O 1.5027722803000003 2.3261178940000002 0.9151237533000001
N 1.5841489475000003 0.9270376898 0.9116376312000001
C 0.5453801396000002 0.4046125669 0.40823834350000004
C -0.7925570363999996 0.8617870805000001 -0.1291640288999999
C -1.2579157953999995 -0.6349146373999999 -0.033962462799999926
O -1.8701319123999995 -1.218804706 -1.1401437486
C 0.22931367300000027 -1.0681996395000002 0.23767231730000005
O 0.7464094193000003 -1.6202501159 -0.9683191557
H 2.3272809649000004 2.5805140534 1.3443254096000001
H -1.3304126601999997 1.6034065012 0.4658556354000001
H -0.7411265918999999 1.212803898 -1.1651848875000002
H -1.8945875128999996 -0.8016420696 0.8387878952000001
H -1.1549665526999997 -1.4450253300999998 -1.7509827216999998
H 0.4249749423000002 -1.7289818186 1.0897841308
H 1.6814176950000004 -1.3984613667 -1.0236681111
