11
004210
F -0.13369169515454538 -2.5707056522272733 -0.011137661345454544
C -0.13693318355454537 -1.2360837728272733 -0.004396082745454543
C -1.3484340684545453 -0.5543569801272734 0.015114541954545457
N -1.4159346552545453 0.7768878243727269 0.022697699554545453
C -0.2673721075545454 1.4587463060727268 0.010876584354545455
C 0.9861016962454546 0.8514498223727269 -0.008811034345454542
C 1.0595464246454545 -0.5375500346272735 -0.016766877145454544
H -2.2809971263545457 -1.1125416806272732 0.024689815654545456
H -0.3529738430545454 2.5420003880727267 0.017457428554545455
H 1.8878483732454545 1.4533973128727267 -0.017755196545454544
H 2.0028401852454545 -1.0712435333272732 -0.03196921794545454
