14
004312
N -0.004581113300000012 2.29822972865 0.16347641252142855
C -0.021909904800000015 0.9214299220500001 0.062308483121428566
C -1.1975765069000002 0.20689148965000015 0.03967536112142857
C -1.2317850056000001 -1.22964171965 -0.004027677378571429
O -2.2169383466 -1.9525722724499999 -0.026180347178571428
N 0.05836097629999999 -1.81965047535 -0.02976072377857143
C 1.2249175676 -1.1278450809499998 -0.012551976778571429
C 1.2345408565999998 0.22814104145000014 0.03312837272142857
H 0.8191534853 2.7679681676500003 -0.17792714137857144
H -0.8626980474 2.7765252030500003 -0.06346284047857143
H -2.1591164729 0.7065958247500002 0.05720861852142857
H 0.05310893339999999 -2.82864177015 -0.06439049477857142
H 2.133820202 -1.71761061595 -0.03676260307857143
H 2.1707033763 0.7701805572500001 0.05926655682142857
