13
004646
C -0.05740118515384615 2.194910896207692 0.041679485023076904
C -0.019728738153846147 0.7048307290076923 -0.004673609176923096
N -0.05434817075384615 -0.033839080292307755 -1.0878407661769232
C 0.0036981337461538533 -1.3440943114923078 -0.6482054654769231
C 0.07481028154615385 -1.3898557938923075 0.7243590112230769
N 0.05807794864615386 -0.07984971729230772 1.1203741097230768
C -0.010741023253846148 -2.4539437547923075 -1.533674409976923
N -0.021046032953846147 -3.3740388010923077 -2.236252532576923
H 0.8450993414461538 2.6086192235076924 0.5052099994230769
H -0.12644920775384616 2.571603212707692 -0.9790021208769231
H -0.9213784999538461 2.560811025107692 0.6074398557230769
H 0.13250158274615387 -2.211096861692308 1.418161266123077
H 0.09690556984615385 0.2459432340076923 2.072425177023077
