18
004773
C -1.4181624577388892 1.8299581302388888 -1.4591416972333335
C -1.002956657138889 0.35001252253888887 -1.5552807954333336
C -0.24955737683888912 -0.14645571726111112 -0.36133778053333354
C 1.090458043961111 -0.4340169109611111 -0.1976665359333336
C 1.293703572261111 -0.8451145452611113 1.1528899922666667
N 2.5415008821611105 -1.1556470301611113 1.7338847467666665
C 0.06784297596111077 -0.7979407463611112 1.7794494315666665
N -0.8577637705388892 -0.36468421166111115 0.8460701142666665
H -0.5392528976388892 2.470799237738889 -1.3427972933333336
H -1.9589780313388891 2.145055251338889 -2.3575247002333333
H -2.070160476038889 2.005726365038889 -0.5970386304333335
H -1.898728729438889 -0.26519139346111115 -1.7199617746333336
H -0.3718253199388891 0.20707745203888886 -2.4382435797333333
H 1.848830941261111 -0.3514001086611111 -0.9626418174333335
H 3.1415261542611113 -1.6560999677611112 1.0895627712666665
H 2.443642099461111 -1.712777267761111 2.5736821729666666
H -0.22066898803888912 -1.0289979914611112 2.7919329427666666
H -1.839449964638889 -0.2503030681611111 1.0241624330666665
