16
004822
C -0.26140223502499993 2.59230320974375 0.0066533962625
C -0.5126823521249999 1.1290351883437502 0.07409287766250001
C -1.641607604825 0.3719707468437501 0.1297148676625
C -1.2166868069249999 -0.9966327897562499 0.1724911300625
C 0.1413537316750001 -0.9812498242562497 0.14739771236250002
C 1.1994573051750002 -2.02777434255625 0.1441104533625
O 1.909300939075 -2.11199315965625 -1.0885458421375
O 0.5844157341750001 0.31504428134375007 0.08912703406250001
H 0.2885621553750001 2.86587632054375 -0.9012281909375
H -1.211520869025 3.13084370954375 0.0046197738625000095
H 0.32809660357500003 2.9403206622437503 0.8626510467625
H -2.654596103725 0.7435570508437501 0.13741810076250002
H -1.840801853525 -1.8758115383562501 0.2142434519625
H 1.8964000591750003 -1.85798036135625 0.9802729565625
H 0.7305178364750001 -3.00321617075625 0.2974980574625
H 2.2611934604750004 -1.2342929827562499 -1.2705168257375
