20
005969
C 0.7849202973899999 2.790025704 0.007663820194999985
C 0.97351466939 1.2806926485 -0.0028054877050000147
O -0.31841227391000004 0.6970126198 0.006797409794999985
C -0.41218076061 -0.7342810011 2.6002194999985573e-05
C 0.20189047058999998 -1.3388325516 -1.280066440205
C 0.2260877953899999 -1.3523692352999999 1.2616897735950001
C -1.8566458362100002 -1.0111038041999998 0.012304915894999985
C -3.02746868451 -1.2787173285 0.02205505959499999
H 1.75565979009 3.295108115 0.0007644536949999855
H 0.2176659006899999 3.1105031094999998 -0.8705520815050001
H 0.2354804293899999 3.1004520258 0.9006909612949999
H 1.53986122459 0.9792458392 -0.896286724505
H 1.5576046362899998 0.9691726666 0.8756716971949999
H 1.28888161429 -1.2197488474 -1.289746186705
H -0.021740037110000054 -2.4072307279 -1.333542052705
H -0.21846442111000008 -0.8505656746999999 -2.1624523896050003
H -0.17737522391000005 -0.8735786742 2.157056418195
H 0.0034456718900000016 -2.4213078143 1.308029943595
H 1.31307501689 -1.2332514487 1.251966062695
H -4.0658002795099994 -1.5012256205 0.03073484499499999
