18
005961
C 0.8758089368944446 1.538275337772222 -0.1346515570333333
C 0.7368583913944446 0.009005938272222222 -0.15678313773333333
O 1.4140301143944445 -0.44958385552777774 1.0220706332666665
C -0.7396693114055555 -0.4567041851277778 -0.14973156623333334
C -1.5335387450055555 -0.014198120427777773 1.075113593266667
O -2.7877428474055552 -0.6817588508277778 1.0173393285666665
C 1.3956681614944446 -0.5384378574277778 -1.3541410955333335
C 1.9257567658944446 -1.019627360327778 -2.3200549360333333
H 1.9296241471944446 1.8139257701722222 -0.20870602303333333
H 0.3329900413944446 1.986777953772222 -0.9700918213333334
H 0.4812502280944446 1.9346037441722221 0.8039075667666666
H 1.5070688483944448 -1.4060813668277778 0.9502332314666667
H -1.2359274408055554 -0.10614172102777777 -1.0608504509333332
H -0.7587171456055555 -1.552211645527778 -0.18700696543333334
H -0.9752495084055555 -0.2771180877277778 1.9843599420666664
H -1.6714780116055552 1.0775870626722222 1.0728910678666668
H -3.2978896520055554 -0.4228059261277778 1.7901695302666667
H 2.4011570270944445 -1.4355068299277778 -3.1740673402333335
