18
006118
C -1.3135784356555558 1.3467163563944444 -0.8302347426777777
C -0.6298325782555556 -0.010501408505555539 -0.7892513830777778
C 0.7101450545444444 -0.21027956770555556 -1.5051223754777778
O 1.1946601438444442 0.2634187687944445 -2.493386000777778
C 1.2423631258444443 -1.1096885298055557 -0.3818151171777778
C 0.05227366224444441 -0.5852442212055556 0.4994796542222222
C 0.4779803825444443 0.45633593419444446 1.5276788537222223
O -0.7712119013555556 -1.5793878584055556 1.0784722576222223
H -0.6512319240555556 2.1450652432944444 -0.48303577937777775
H -1.6049828356555556 1.5867206874944444 -1.8568961369777777
H -2.2155557344555556 1.3547808699944444 -0.21059592327777776
H -1.3123958591555556 -0.7953520387055556 -1.1423543714777777
H 1.1129554740444445 -2.1699615078055556 -0.6205596352777778
H 2.2671833673444444 -0.9301746223055556 -0.0474431409777778
H 1.0921597987444445 1.2428895564944444 1.0782413097222223
H -0.3963680015555556 0.9217734176944444 1.9914022885222222
H 1.0779229160444443 -0.01277004060555554 2.3172856690222225
H -0.33248665505555564 -1.9143410393055555 1.8681345737222224
