13
006621
C 0.21016649254615388 3.7363257067615385 0.018075041899999998
C 0.21742120854615388 2.2858712409615385 0.0102147438
C 0.2261441143461539 1.0752148593615385 0.0036285705999999996
C 0.2376164181461539 -0.28174524543846147 -0.0037699863999999996
C 0.23895833184615387 -1.4941714445384617 -0.0102992804
C 0.33654739204615386 -2.9452617999384616 -0.019069011
N -0.8713367585538462 -3.580004920538461 -0.0109498499
O 1.4031077003461538 -3.5296765447384617 -0.032303799999999994
H 1.2297926576461538 4.137036248661539 0.0102969474
H -0.31307641285384613 4.131550838261538 -0.8598002193000001
H -0.29583596685384617 4.122042521461538 0.9101710196999999
H -1.737255927553846 -3.070518476738462 3.545519999999941e-05
H -0.8822492496538462 -4.586662983538462 -0.0162296316
