17
007086
C -0.38867372994705884 1.6782758329058824 -1.8919754881000004
C -0.7598854380470588 0.20393975720588237 -1.6766899293000004
N 0.24193146905294116 -0.5067988350941177 -0.9024931618000004
C 0.12272446615294114 -0.5545042875941177 0.3671223324999997
N -0.8554315623470589 -0.05308254939411766 1.1803583050999995
N 1.1322814655529412 -1.2855068486941177 1.0407027623999996
C 1.357030873452941 -1.4162668577941175 2.3768551464999996
O 0.6854847407529412 -0.9397817620941176 3.2736979103999997
H 0.5975160198529411 1.7546456025058823 -2.3585428121000005
H -1.119192538647059 2.1740414339058822 -2.5396519680000003
H -0.34857980274705885 2.2248505435058825 -0.9433104457000003
H -1.767682734047059 0.13414658120588235 -1.2331125869000004
H -0.8289614573470588 -0.28590266019411764 -2.6547675205
H -1.4325556766470589 0.6824686225058824 0.8134523899999997
H -0.6742521999470589 -0.07192302219411767 2.1767046033999997
H 1.784511402552941 -1.7079979092941175 0.3958685195999996
H 2.2537347023529413 -2.030603641394118 2.5757819424999995
