18
008110
C -1.2520596141777776 1.415064797938889 -0.5489060113333333
C -1.0611936816777776 -0.0883647133611111 -0.5404031831333332
C 0.22160877102222254 -0.8438994576611112 -0.8515553777333333
C 1.4593963353222226 -0.1971157936611111 -0.2449410408333333
O 1.8297176183222226 1.038476525738889 -0.8238244996333333
C 0.7830043206222224 -0.21038753826111112 1.1729962284666666
C -0.42284004687777754 -0.9141580612611111 0.5369775255666667
O -1.0355707349777776 -2.0231000793611114 1.0998080456666668
H -0.37816750657777753 1.942852433538889 -0.16702762523333325
H -1.4209264348777775 1.771456488138889 -1.5707652080333334
H -2.1253984784777775 1.699898640838889 0.05002702856666674
H -1.9047519219777775 -0.6339589242611111 -0.9628848840333333
H 0.2445559013222225 -1.592840411661111 -1.6340166400333334
H 2.304280724122222 -0.898239192261111 -0.2647819267333333
H 2.631651228022222 1.3439260054388888 -0.3877505880333333
H 1.3098526690222225 -0.8551204409611111 1.8799907252666668
H 0.6024122644222225 0.7655495411388888 1.6341246694666667
H -1.7855714125777775 -1.7200398200611111 1.622932761766667
