15
009231
C 2.068742506533334 1.2719484233333334 -0.6460473892533334
O 1.7621519874333338 -0.007210172366666684 -0.08759493395333334
C 0.4587583950333338 -0.3246317089666667 0.006442808946666684
N 0.3140748740333339 -1.6190543961666666 0.44887865724666665
N -0.4470867903666662 0.5102614867333333 -0.33758329055333336
C -1.8307032260666662 0.07930411603333332 -0.3112038516533333
C -2.324098376366666 -0.3063657928666667 1.0257945457466666
N -2.6500486545666666 -0.6450229181666667 2.0828376277466667
H 3.157853829333334 1.3264649815333334 -0.6634025851533334
H 1.6624047607333339 1.3615771629333333 -1.6565292577533335
H 1.653096330733334 2.0727565311333334 -0.02980342345333334
H 1.158713150533334 -2.0250626512666665 0.8233895276466666
H -0.510932575066666 -1.8163113229666668 0.9970921702466667
H -2.4591907110666664 0.8991615480333334 -0.6733682729533333
H -2.013735500866666 -0.7778152869666667 -0.9789023328533333
