18
009765
C -0.22581894689999998 1.74945110885 -0.012759659583333326
C -0.149935941 0.22953723125000003 -0.08048375078333332
C -1.5435261972 -0.41959369814999997 -0.1250403494833333
O -2.2447532629999998 -0.21415777905 1.0824579396166667
C 0.7614234362000001 -0.31249938154999995 -1.1987109259833333
O 1.375675896 -1.4496205738499999 -0.6101635180833334
C 1.5920637244 -1.07315213835 0.7235193165166667
O 0.48985182639999997 -0.27682461264999997 1.1189401034166666
H 0.7614667796000001 2.17790643825 0.17979959871666668
H -0.6037553534 2.1556264021500002 -0.9574473078833333
H -0.9071796405999999 2.05245878225 0.7853295978166667
H -2.1442818213 0.02734497515000002 -0.9250968812833333
H -1.4224871035 -1.4918012941499998 -0.3463695045833333
H -1.6369691334 -0.48938384394999995 1.7808025129166667
H 0.2138027152 -0.6388227343499999 -2.0862701400833332
H 1.512773455 0.43602583695 -1.4933557380833333
H 1.6471246341999999 -1.97389990935 1.3427235803166666
H 2.5245249333000004 -0.48859480944999995 0.8221251265166667
