20
009758
C 1.512585481105 2.022474081395 -0.5809535545050001
C 1.4010209197049999 0.511949072195 -0.35448972230500003
C -0.041417296495000144 -0.024029861605000036 -0.32174389850500007
O -0.7201422727950002 0.33261077249499993 -1.5444115304050001
C -0.10100951519500012 -1.567267289205 -0.21815033880500004
C -1.3066411569950003 -1.895082718405 0.6948519899949999
C -1.550083529295 -0.5908476438050001 1.413130176995
C -0.856471968695 0.41402583339499993 0.882488285395
H 2.5604645740049996 2.335014224095 -0.614307577505
H 1.054409781405 2.308633568895 -1.532795844605
H 1.028058198305 2.594725557995 0.21802729719499991
H 1.933711798105 -0.011852075705000076 -1.1579316452050001
H 1.8952994406049999 0.23801343819499995 0.585723277095
H -1.027890343895 1.240434818095 -1.459410828405
H -0.17775013269500017 -2.0058697655050004 -1.215216576605
H 0.8214156612049999 -1.935513901905 0.24116818679499996
H -2.194860595095 -2.188035095205 0.11968870099499995
H -1.098571553895 -2.7233944721050003 1.381558454795
H -2.2395717776949997 -0.502137308605 2.246570492995
H -0.8925557116950003 1.446148765295 1.216204654595
