13
010590
C -0.3546119167000001 1.5007362505538462 -0.9028764331538462
C -0.4629842507000001 0.005296637153846179 -0.8086917807538463
O 0.6925814423999999 -0.7710636966461538 -1.0674800326538463
C 0.1961674432999999 -0.8189252386461539 0.26603367134615374
C 1.0322260912999999 -0.16325254844615383 1.3449259911461537
O 1.8693574767 0.6670477238538461 1.1205547600461536
C -0.43688309700000005 -2.0609014192461537 0.6688452505461537
N -0.9360452872 -3.0369926844461537 1.0345867014461536
H 0.5766100466999999 1.8586264302538462 -0.4643830298538463
H -0.38171928690000007 1.7916093832538462 -1.9580578915538462
H -1.2058562117 1.9729892570538463 -0.4028903713538463
H -1.3814714319 -0.43450669024615385 -1.2012851448538462
H 0.7926289816999998 -0.5106634044461538 2.3707183096461533
