17
011850
O -2.1947749177235294 -2.556660113452941 1.1914943635411763
C -2.1797433291235295 -1.355419141252941 1.0117769815411766
N -1.1049237520235293 -0.6590532528529409 0.5877660253411765
C 0.21742805897647077 -1.1293821104529411 0.16758240444117645
C 0.5247460975764708 0.3232197858470589 -0.23875029065882358
C 1.8023144564764704 1.077289938047059 -0.04744322505882359
C 1.2774295917764706 0.7995665539470589 -1.4402035678588234
C -0.8875128765235294 0.742533224447059 0.21094572224117647
H -3.0568435812235295 -0.6972041818529411 1.1847233599411764
H 0.8195848515764705 -1.538359219752941 0.9866123854411765
H 0.1812810855764706 -1.860582149452941 -0.6478781058588235
H 1.7448617653764704 2.094266088947059 0.32745131054117643
H 2.6734282256764703 0.5257414416470589 0.2914793587411765
H 1.7932280046764704 0.060063220047058774 -2.0443318061588234
H 0.8654221854764708 1.6289023549470594 -2.0063439975588233
H -1.5492386225235293 1.100338649847059 -0.5875347495588236
H -0.9266872440235294 1.4447389113470592 1.0526538309411766
