20
011965
C -0.310676105595 1.7406347177000001 -0.505596714495
C -0.14888705189499996 0.2264113905 -0.614233766695
C -1.4477199354949999 -0.4543267709 -1.039057668395
C 1.1091241785050001 -0.23436798399999997 -1.399676824395
O 1.696777242105 -0.825444614 -0.220019138095
C 0.575066125505 -0.43687953409999997 0.571896249805
C 0.7442140888050001 0.010375905500000004 1.985789257805
C 0.058551837805000034 -1.3133082478 1.664064024205
H 0.6229290056050001 2.2181659987 -0.19382833629500001
H -0.6087002156949999 2.1702447603 -1.468813942495
H -1.083555215795 2.0038085122 0.22540064000500004
H -1.777835581995 -0.08669162529999996 -2.0173412053949997
H -1.323445938395 -1.5391290835 -1.1069842535949999
H -2.252185844495 -0.2521078416 -0.32288586199499997
H 0.9293382006050002 -0.9814760387999999 -2.1824126924950003
H 1.733595102105 0.5711288065 -1.805113505295
H 1.747414662505 -0.033035558500000006 2.396572602105
H 0.13757080920500003 0.831641987 2.354282383905
H -1.013712649995 -1.3909334303999998 1.814078800605
H 0.6121372866050001 -2.2247113495 1.863879951205
