17
012053
C -0.39598330130000003 1.7396740885411766 0.13953654500588233
C -0.42831733450000004 0.2327988739411765 -0.10449346209411764
C 0.5170202361 -0.3740353717588235 -1.2012042277941175
C 1.1976134645999998 -1.2100218415588235 -0.11514774319411764
N 1.7437439849 -0.2472027475588235 0.8756864848058824
C 0.3202351202 -0.6473716461588236 0.9405132863058824
C -1.8571017879 -0.2571435656588235 -0.22729226199411764
O -2.2770431066 -1.0222814673588236 -1.0570890101941177
H 0.6209151072 2.0443890287411763 0.39506622050588236
H -0.7129701949 2.290530618141177 -0.7524892941941177
H -1.0605017809000001 2.0243342834411764 0.9640783659058824
H -0.05503193690000002 -0.9690205105588237 -1.9145010605941175
H 1.1649266146000001 0.3363370892411765 -1.7191630450941175
H 1.6158065854 -2.204350855258823 -0.20798212989411763
H 2.2341234037 -0.7878961933588235 1.5883014542058824
H -0.09482646690000002 -1.0989493869588236 1.8342257263058825
H -2.5326086067999998 0.1502096041411765 0.5619541520058823
