19
013090
C -1.0270655933263155 1.4192434724631577 -1.046812345963158
C -0.8651911450263157 -0.08895784393684218 -0.8621212915631579
C 0.21779777137368428 -0.7310614171368421 -1.774250368863158
C 1.1269883033736843 -0.7636562110368421 -0.5229074978631579
N -0.06796101172631563 -0.5400112438368422 0.31008154093684215
C 0.026259837473684322 0.22577405636315784 1.5269428659368423
C 0.5427013131736844 -0.6389605465368422 2.668822251536842
O 1.2635178049736844 -0.2510016865368422 3.5500569330368426
H -0.060042729226315594 1.933416383163158 -1.056773805863158
H -1.5262023357263157 1.6232962906631578 -2.000143017763158
H -1.6391101998263156 1.861360849863158 -0.25370177786315795
H -1.8530087759263156 -0.5655695376368421 -0.8971788355631579
H -0.05511210022631563 -1.7249027629368423 -2.132092486763158
H 0.5600220686736843 -0.12445081213684217 -2.614140684163158
H 1.6690427678736843 -1.6915747698368422 -0.31072876016315787
H 1.8458583631736842 0.07130959276315782 -0.49330038376315793
H 0.6498475232736844 1.1342159275631578 1.4669317453368422
H -0.9858608476263157 0.5415145213631578 1.821918378836842
H 0.17751898527368426 -1.6899842626368422 2.619397540536842
