20
013819
C 0.5748545169 2.6500873336049997 0.5685328671
C 0.48984139279999994 1.694169503805 -0.628748198
C -0.7914718736 0.8931299562049999 -0.6016832543
O -0.9464006721000001 -0.21487634719500015 -1.5129901892
C -0.93687581 -0.4833362269950001 -0.1009779564
C 0.20725738739999994 -1.3799762050950002 0.3755827074
C -0.2737107124 -2.825980459495 0.5410346187
O 1.3087633396 -1.314997736095 -0.5141363339
H 1.4840706467 3.2553787491049997 0.5168699793
H -0.27975844270000005 3.3353287967050003 0.5977007478999999
H 0.5925372009 2.101128830105 1.5157931059
H 0.5128044586999999 2.271212306805 -1.5620739765999998
H 1.3463149965999999 1.0180220712049999 -0.6393186212
H -1.6934911239000003 1.508968391205 -0.5515746907
H -1.9129656736 -0.7643305441949999 0.298982329
H 0.5642461593 -1.0111457051950001 1.3467067863000002
H -1.0545622529999998 -2.900192731895 1.3059760787
H -0.6791792715000001 -3.206546393395 -0.4027692821
H 0.5642332907 -3.4619913238950004 0.8365381931
H 0.9234924432 -1.164052265295 -1.389444911
