15
013849
N 1.3123999334266667 2.17636779256 0.006127786859999991
C 1.3959980257266666 0.7919866097599999 0.01913448415999999
O 2.4465107802266663 0.18767716695999992 0.09943584695999999
N 0.17832130012666658 0.1306452508599999 -0.028308054040000013
C 0.09679919872666676 -1.33784543624 -0.031244830340000012
C -1.4421208712733333 -1.55188961834 0.006018522459999991
N -2.0505617861733336 -0.22749668304000004 0.24903363536
C -1.1048190670733333 0.6209377283599999 0.20472713636
H 2.217749437226667 2.6054545550599997 -0.11559061994
H 0.5806930867266666 2.6043111311600002 -0.54057369014
H 0.5781095742266666 -1.74708027244 -0.9216835600400001
H 0.6118010918266666 -1.74193913724 0.8450578988599999
H -1.8256601324733335 -1.94940787324 -0.94040257394
H -1.7472351545733333 -2.24703783204 0.79298826426
H -1.2479854166733333 1.6853166178599999 0.35527975316
