18
013854
C 0.058857196755555535 2.322398388438889 1.1698806578555554
C 0.21904887125555553 0.8130711191388887 1.1661637159555553
O 0.19815209045555554 0.1675844530388888 2.1891443214555553
C 0.3670205481555555 0.15985451203888879 -0.20512635394444456
C 0.9207311623555556 -1.2839808734611111 -0.17590553714444468
C -0.15520329054444448 -2.108725394861111 -0.9151211391444447
O -0.8986977589444445 -1.174780983261111 -1.6899438466444445
C -1.0251000744444445 -0.02186465376111124 -0.8883349104444447
H 0.9746497344555556 2.7935964766388888 0.7939255567555553
H -0.7505696722444446 2.628658900038889 0.49720842185555536
H -0.14503192364444445 2.6757387450388888 2.1811252633555553
H 0.9800342633555554 0.8050539735388887 -0.8414346744444448
H 1.8828311287555555 -1.3361030605611113 -0.6900098403444446
H 1.0563081047555556 -1.6197285235611112 0.8535250160555553
H 0.2503135381555555 -2.859068384661111 -1.5977049542444448
H -0.8165133764444445 -2.614445763161111 -0.19445178824444476
H -1.8059783445444444 -0.16097074036111125 -0.12118509014444467
H -1.3108521976444445 0.8137118097388888 -1.5317548185444447
