17
014266
C -1.0892355486999998 0.8569415948411765 0.31144242735294114
C 0.4424620692000001 0.8132812785411765 0.5547901833529412
C 0.24440646100000007 -0.5378893744588236 1.2913124401529412
C -1.1029688755999998 -0.6875037588588235 0.5218008878529411
N -0.9849638080999998 -1.4379116091588235 -0.707733643947059
C -0.09854099389999982 -1.2037716483588237 -1.575625906147059
O 0.9164330955 -0.30643740315882356 -1.6719091857470587
C 1.2663777476 0.7093054308411764 -0.7146720528470589
H -1.6131227422999999 1.3816984416411766 1.1149912532529411
H -1.4496930976 1.2226726629411764 -0.6535635994470588
H 0.8705521684000002 1.6338584478411766 1.1398104478529412
H 0.9865882115 -1.3253462218588234 1.136505918152941
H 0.08674236030000015 -0.3962283646588236 2.3639637351529412
H -1.9432733290999997 -1.0917991495588235 1.089938952852941
H -0.06904956089999992 -1.8113807854588235 -2.479864952947059
H 1.2207960971 1.6586940360411764 -1.2626135670470588
H 2.3164897456 0.5218164228411764 -0.4585733378470589
