18
014279
C -1.5449849119555554 1.0328039125555555 -0.5300206479666667
C -1.1862943257555554 -0.4341631840444446 -0.4106013839666666
C 0.1715476310444446 -1.0082720363444446 -0.7521194512666667
C 1.3593427850444446 -0.07299702664444457 -0.8560593405666667
C 1.4669789837444445 0.6298142228555554 0.5080259028333334
O 2.159437053944445 1.5833936812555556 0.7497715487333334
C 0.5423523996444446 -0.08000072994444457 1.5117622890333333
C -0.32691203095555543 -1.0125470642444445 0.6925318723333334
H -0.7288438725555554 1.7023702058555554 -0.24644818016666664
H -1.8231961829555554 1.2803827193555555 -1.5602741100666666
H -2.3997556563555555 1.2754407005555555 0.11077049933333333
H -2.0060630333555554 -1.0897441174444447 -0.6953930371666666
H 0.20221177644444466 -1.9309180899444445 -1.3202830694666667
H 2.287985469844444 -0.6342401922444446 -1.0207727047666666
H 1.3008176445444446 0.6759140042555556 -1.6521934864666667
H 1.1728567140444446 -0.6437966608444445 2.2111188412333336
H 0.00396872704444462 0.6647985811555555 2.1063543928333335
H -0.6514491714555554 -1.9382389261444446 1.1538300655333333
