18
014367
C -0.12465847049444446 1.300183190127778 1.1170849148444444
C 1.3578716991055555 0.9077820919277779 1.0772719822444443
O 1.0295942123055555 -0.2688312628722221 1.9535864439444444
C 0.00437981340555553 -0.2336762596722221 0.8752967468444444
C -1.0177761241944445 -1.180187514772222 0.31230284484444437
C -0.9844283249944444 -0.7344914302722221 -1.2042018342555558
C 0.3028044166055555 0.16459836802777789 -1.4540554501555556
C 1.0989975568055557 -0.01609853067222211 -0.15889446155555564
H -0.5009808788944444 1.575140973727778 2.1027375695444444
H -0.5264550195944444 1.9302110524277778 0.32107871984444436
H 2.2441884775055554 1.4750220542277779 1.3639003290444445
H -0.6774888422944444 -2.214456763772222 0.4230795608444444
H -2.0166672186944443 -1.0985088015722222 0.7478158837444444
H -0.9754264688944444 -1.614842761572222 -1.8514334215555557
H -1.8886360844944445 -0.1734604999722221 -1.4542851708555558
H 0.8571557888055555 -0.17169050047222212 -2.3331878376555553
H 0.00883150930555554 1.199592090527778 -1.6429211566555557
H 1.8086939587055555 -0.8462854953722221 -0.19517566305555567
