18
014864
C -0.20055136007777774 2.4812989041333333 0.5755758690499999
O -0.7614896545777777 1.2444408470333332 0.1913655397499998
C 0.15628244332222224 0.3800201440333332 -0.41793630685000016
C 1.1943809078222223 -0.3725131774666667 0.4613209745499999
C 0.8528759806222224 -1.6616031096666668 -0.33209156785000005
C -0.4564695190777777 -0.9796011672666668 -0.8591764596500002
C -1.6667977779777776 -1.3733307238666668 -0.04863823125000011
O -2.7131668984777777 -1.7311341527666668 -0.5247905330500002
H 0.5914427141222223 2.3578979131333333 1.3289304098499999
H 0.22370545382222223 3.016186229033333 -0.2883449529500002
H -1.0048176733777778 3.082487479733333 1.00501250115
H 0.6472590622222223 0.8761797938333332 -1.26968567945
H 2.229152388322222 -0.024318070466666786 0.44689095764999986
H 0.8507534207222223 -0.4274743339666668 1.4982074000499999
H 1.5520861535222223 -1.857266775366667 -1.1473054091500001
H 0.7257741100222224 -2.581421120866667 0.24316121304999982
H -0.6971682466777778 -1.090269431066667 -1.91731049035
H -1.5232515042777777 -1.3395792481666668 1.0548147654499997
