13
015459
O -0.6242581779307692 -2.3048447004923083 -0.004318712523076924
C -0.6123388788307692 -1.096255346992308 0.0020690770769230746
N -1.7029557236307693 -0.257940692692308 0.020025251776923075
C -1.3620581377307692 1.1433526722076919 0.02322056097692308
C 0.14012519436923077 1.1041550717076918 0.004121361076923074
C 0.5819810112692307 -0.16391232699230818 -0.008187065723076925
C 1.9108544885692307 -0.637831840592308 -0.027481300523076922
C 3.0365247573692304 -1.063600035592308 -0.04395235192307692
H -2.641567158430769 -0.618147198792308 0.029982885876923077
H -1.7612780388307692 1.675366118807692 -0.853386517923077
H -1.7390573648307692 1.6659316985076917 0.9152055198769231
H 0.7467936083692308 1.9991760801076923 0.0011898869769230748
H 4.027234420269231 -1.445449499192308 -0.05848859502307692
