14
017702
O -0.30695599043571425 2.3598535755 0.10286989254285714
C -0.14278551613571427 1.0011251927 0.06645518474285714
C -0.09775786223571427 -0.06196965330000004 1.1418146904428572
C -1.1992176150357143 -0.059735698500000045 0.048689450842857133
C -0.45774069253571426 -0.9329466674000001 -1.0003786019571428
O 0.22769215616428576 -1.9890276006 -0.2924783806571429
C 0.9418483956642858 -0.9274026583 0.38100003204285715
C 0.7424839874642858 0.056189921099999984 -0.8212782607571428
H 0.4575967500642858 2.7498869472 0.5418046502428571
H -0.3412014856357143 -0.016141143100000033 2.194413493042857
H -2.2495535847357147 0.004057248800000024 0.29588115594285713
H -0.9356711029357142 -1.2467470406999999 -1.9265146493571428
H 1.8766365389642858 -1.2390474606999997 0.8440769083428571
H 1.4846260213642857 0.30190503729999996 -1.5763555654571428
