16
018078
C 0.5857699758187499 3.097036927325 -0.6141337728437499
C 0.5583103657187499 1.641754558225 -0.61818501884375
C 0.5291851920187499 0.4371876401249999 -0.63101114854375
C 0.4959120906187499 -0.9965210369750002 -0.6429849463437499
C 0.25197035581874994 -1.8491483548750003 0.6055081216562501
C -0.83359381548125 -1.193149722875 1.45183801245625
O -1.73775450098125 -1.136767364575 0.31110354975625
C -0.77618371818125 -1.8059772303750001 -0.49264622214375
H 1.23510070761875 3.4865449299249995 0.17812262875625007
H 0.9571137624187499 3.488568149725 -1.56784711844375
H -0.41619386708125006 3.511238784625 -0.45577528204374995
H 1.20537287891875 -1.4758144394750004 -1.3154315920437498
H 0.9374128563187499 -2.6234784802749997 0.9217087566562501
H -1.24139674998125 -1.851262983175 2.2260790730562503
H -0.6222491437812502 -0.2006761074750001 1.86293380075625
H -1.1287763897812502 -2.5295352698749998 -1.21927884184375
