20
018363
C -1.140577753 1.8533067830049998 -0.251820427405
C -0.8841695785000001 0.346512585905 -0.24898105190500003
C 0.01685086779999989 -0.167285264895 -1.394164998305
C 0.4169906702 -1.5843554694950002 -0.943942683505
C 0.6101369370999999 -1.449119513095 0.565840245795
O 1.8506067916999998 -0.7823091279950001 0.9051629347949999
C 1.1495205209 0.360343541305 1.436310840395
C -0.22198168270000007 -0.21756184929500005 1.025194378995
H -0.20761762560000008 2.4213379545050002 -0.171001606405
H -1.6329330638 2.163613851305 -1.179389365805
H -1.7862627841 2.151325049105 0.5814193430950001
H -1.8547724780000001 -0.161908339495 -0.342535148305
H -0.48659610360000005 -0.147838708995 -2.364984481705
H 0.910502383 0.462509268405 -1.478466992205
H -0.3965326119000001 -2.2940750838949997 -1.141429693805
H 1.3187972212999997 -1.965291081495 -1.431605697605
H 0.5043816323 -2.3906496689949996 1.115982114995
H 1.2981705882999997 0.460756899005 2.5192995314949997
H 1.4624759922 1.293826758705 0.952264333295
H -0.9269899236000001 -0.353138583595 1.846848424095
