18
018648
O 1.1766258848444444 1.197435236238889 -1.032055043333333
C 1.2717632498444444 -0.1943282971611111 -0.8478667565333332
C 0.9151958464444445 -0.8738336463611112 0.45211221056666673
C 0.19560187634444448 -0.07886018476111109 1.5378297186666665
C -0.9983902058555556 0.6098187521388889 0.8430877018666668
C -1.2759896765555554 -0.1814372560611111 -0.4669959047333332
O -1.7006827930555557 0.6349707801388889 -1.5438568803333332
C -0.002039251855555646 -0.9770802715611111 -0.7572569779333331
H 1.8829915066444445 1.6238705957388888 -0.5361366820333332
H 2.0783117996444442 -0.6535075843611111 -1.4188222411333333
H 1.5407923368444445 -1.705756852161111 0.7599413942666667
H -0.15073700015555547 -0.7797530469611111 2.3053040741666666
H 0.8510597067444444 0.6385990092388889 2.0456533422666667
H -1.8833933105555556 0.649578940638889 1.4834596569666667
H -0.7483704563555558 1.636544250038889 0.5699573591666668
H -2.096745439955556 -0.890087505161111 -0.31090828683333316
H -0.9617503572555555 1.2256369396388889 -1.7359789839333333
H -0.09424371575555557 -1.8818098592611112 -1.3474677011333331
