13
020648
C 0.4859267571307692 2.307694066546154 0.01730820261538462
C 0.36604940213076925 0.8264783148461539 0.053365144715384616
C -0.6534192087692307 -0.048062875253846116 -0.15772783248461536
C -0.05673475776923076 -1.325303161353846 0.04446428821538462
C -0.7274956361692307 -2.644877793453846 -0.061676284284615385
O -0.19706735286923072 -3.7106450549538463 0.11498131401538463
N 1.2209037678307693 -1.2216596556538464 0.3526720744153846
O 1.4842453465307694 0.13125411984615387 0.3576315697153846
H 1.2268265777307692 2.621764764046154 -0.7248121050846155
H -0.47547051506923077 2.756058872646154 -0.23881191518461536
H 0.8057464374307692 2.6976357777461537 0.9888842884153846
H -1.6749327837692305 0.17578177754615387 -0.41755123208461536
H -1.8045780343692308 -2.5661191525538465 -0.3287275129846154
