12
020624
C 0.005855081508333347 1.4432450823666667 0.9727306184416668
C 0.033484464508333346 -0.03918163183333339 0.8515657165416668
C 0.008695450708333347 -0.8486034565333334 -0.2527154811583333
O 0.052545449708333344 -2.1289679213333335 0.16052082474166673
N 0.10591813800833336 -2.0897589988333336 1.573422143941667
N 0.09352759220833334 -0.8835691683333333 1.936961006741667
C -0.05021579279166665 -0.5651341338333334 -1.6271259809583332
C -0.10086496269166664 -0.3005734724333334 -2.799986290558333
H 0.9011323257083333 1.8100076023666667 1.4844277924416667
H -0.04274690159166665 1.9041848617666666 -0.015982588558333233
H -0.8620030541916667 1.7715090814666667 1.5531810125416667
H -0.14532779109166666 -0.07315784483333339 -3.836998774158333
