14
021037
C 0.011324585014285724 2.3715704969714286 0.2954104474142857
N -0.008790943385714275 0.9298612626714288 0.3365884200142857
N 0.05025334621428572 0.1655881771714287 -0.8148407100857142
C 0.010019561114285716 -1.0460724185285715 -0.38442093798571425
C 0.04292545221428572 -2.2869993407285714 -1.1924137969857143
O -0.07154452258571428 -1.1486291720285715 0.9703731204142858
C -0.08484261908571428 0.16138937487142868 1.4631969295142857
O -0.14995755068571426 0.4586595520714287 2.623312378714286
H 0.9359361232142858 2.7318986747714287 -0.16473884718571424
H -0.8431078425857143 2.7536796383714286 -0.27063670058571426
H -0.04578415938571428 2.721969962171429 1.3269976752142858
H 0.9043644998142858 -2.9043009079285715 -0.9181745321857144
H -0.8588773047857142 -2.883614044828571 -1.0217341590857143
H 0.10808137491428571 -2.025001255028571 -2.248919287185714
