19
022546
C -0.0596298524473684 2.175103114763158 -1.0687108373789476
N -0.8974609048473684 1.154235111663158 -0.4590633742789476
C -0.2871168943473684 0.43754293726315796 0.6342247035210523
C -1.3496735360473684 -0.008951368136842053 1.6346773844210523
O -2.4984007071473684 0.34916312526315796 1.595436297021052
C 0.5197232718526316 -0.7664927166368419 0.17059017342105232
C -0.10154290814736844 -1.7503647991368418 -0.7778792645789476
N 1.6957902129526317 -0.8557200737368421 0.6648633748210523
O 2.354146093252632 -2.014253455536842 0.23365322232105235
H 0.8231593940526315 1.7108812645631581 -1.5211881643789478
H -0.6182915249473684 2.673981282263158 -1.8653952399789477
H 0.29685770915263154 2.944559845263158 -0.3613043808789476
H -1.7917332807473683 1.521135059763158 -0.1517346904789476
H 0.40910705075263165 1.050436448763158 1.2420119310210525
H -0.9692634977473684 -0.680516041436842 2.432596572021052
H -1.0086328060473684 -1.3284799291368419 -1.2115473253789477
H 0.6024152418526315 -2.006799534036842 -1.5740068025789475
H -0.3411665291473684 -2.685844943136842 -0.25863708027894766
H 3.2217134677526316 -1.919615328636842 0.6414135016210524
