17
022983
C 0.10155877720588233 2.0271746774529413 0.4313772482176471
C 0.33549565350588234 0.5479851562529412 0.5637097669176471
N 0.4915810474058823 -0.10222875844705881 1.6530265022176471
O 0.44059502710588233 0.7209994581529412 2.7873286228176473
C 0.3701029518058823 -0.23968305504705878 -0.7135106547823529
C 0.3443321950058823 -1.7927865704470587 -0.667866210582353
N -0.9132734503941177 -1.7270148509470589 -1.425676770082353
C -1.0037639544941177 -0.3631239209470588 -1.454663594182353
O -1.8259651923941176 0.4072883827529412 -1.8737637588823528
H 1.0135940739058822 2.5245341462529414 0.07860075811764711
H -0.6788171357941176 2.206104573752941 -0.3145777928823529
H -0.1835112377941177 2.468000055852941 1.385419918617647
H 0.5453623571058823 0.08379394375294125 3.501403634917647
H 1.1331967788058823 0.16657952305294121 -1.3864504008823528
H 1.1601331020058823 -2.2889460874470586 -1.2010616374823528
H 0.2424591078058823 -2.199957968047059 0.3388203267176471
H -1.5730801007941175 -2.4387187059470588 -1.7021159587823531
