10
023674
F 0.2843960266099999 -2.51341674949 -0.01782524731
C 0.24864331730999992 -1.1942970528900003 -0.010057035510000001
C -0.9835130007900001 -0.5564073204900004 0.010437328689999997
C -0.8953879186900002 0.8284113138099998 0.01689142539
F -2.0074206601899998 1.5386414725099993 0.03612963819
N 0.2369346580099999 1.5047716900099992 0.005082960689999999
C 1.3416510713099998 0.7590187196099998 -0.014195827210000001
N 1.4116158021099998 -0.5721296272900003 -0.022576410810000003
H -1.92397284019 -1.0884575430900003 0.02042517589
H 2.28705354451 1.2938650973099994 -0.02431200801
