14
025212
O -0.047312172564285715 -2.7045105784285712 1.0083073836785714
C 0.00298131783571429 -1.5774322948285713 0.5782916608785715
N -1.1579058232642856 -0.7959801299285714 0.6633025795785714
C -1.5070652598642857 0.47747251917142863 0.3076106013785715
C -0.7557493126642858 1.4338897409714289 -0.28442743372142854
C 0.6103948067357142 1.3341405276714289 -0.6856453346214285
C 1.4797547903357144 0.2974804910714286 -0.5834095029214286
C 1.3172910666357143 -1.0440223325285714 -0.0386479485214285
O 2.241420393935714 -1.8334476879285715 -0.044806503821428534
H -1.8879942903642857 -1.3462156576285713 1.0992566621785715
H -2.5387560008642858 0.7024426632714285 0.5557383342785714
H -1.2549973671642856 2.3772521681714283 -0.47078935022142854
H 1.0101099005357144 2.2354727586714285 -1.1447909402214287
H 2.487827950735714 0.4434578122714288 -0.9599902079214285
