18
025870
C 1.767258686433333 2.611493841427778 -0.01291454267777777
C 1.828375926233333 1.089217551827778 0.01339979462222223
O 2.8973099577333334 0.5069860720277779 0.041452509322222234
C 0.5565980271333331 0.35497111292777794 0.0037016215222222294
C -0.7269078511666667 0.8733271833277779 -0.026874677877777774
N -1.5980255183666667 -0.17527894427222201 -0.02445218267777777
C -0.9100592072666669 -1.3774447269722219 0.00716715522222223
C -1.6256060456666668 -2.687420550772222 0.01649313292222223
C 0.425015791533333 -1.0704451815722222 0.02503718882222223
H 2.7825241024333334 3.009183466427778 -0.002195226977777771
H 1.2474062204333332 2.963528414127778 -0.9106067633777777
H 1.2173283083333333 2.9928101615277782 0.8543839796222222
H -1.0805067233666668 1.891622127127778 -0.04976819887777777
H -2.600401777866667 -0.09019513687222203 -0.04305968867777777
H -2.248311966566667 -2.825157515872222 -0.8762349326777777
H -0.9002866821666671 -3.5031972384722225 0.04241465542222223
H -2.2786722308666665 -2.7959849383722224 0.8913728850222222
H 1.246960983033333 -1.768015697572222 0.05068329132222223
