19
026169
C 1.2224155124000002 1.6281444196894737 -0.7455068061157895
N 0.9887775572000002 0.4684603431894736 0.11552614208421053
C 1.4525432882000002 0.7067478887894736 1.4831481500842107
C -0.3405408340999998 -0.008885393010526377 0.05515872578421055
C -0.7104997389999999 -1.2419935294105264 -0.4231111239157895
N 0.04589253240000024 -2.3292604240105264 -0.8788915045157895
N -2.0791015499 -1.2915517017105262 -0.2833216800157895
C -2.4722801417999998 -0.09669142161052635 0.26720797218421055
N -1.4534071677999998 0.6928955441894736 0.48656755508421057
H 2.2926993321 1.8622325252894738 -0.7580989749157895
H 0.9081577541000002 1.3939509152894738 -1.7662236194157894
H 0.6744764891000001 2.524814320989474 -0.41364192501578945
H 0.9230547476000002 1.5381750760894737 1.9754885476842103
H 1.3027587013000002 -0.1961258864105263 2.0810708528842103
H 2.5232119105 0.9388515248894737 1.4685262496842104
H 1.0263947675000002 -2.077033566610526 -0.7949124189157895
H -0.13498528119999986 -2.548961435410526 -1.8546982664157894
H -2.6592370777999994 -2.0901121083105263 -0.4780507228157895
H -3.5103308008000003 0.12634290808947363 0.4637628465842105
