19
026152
C 0.9997619361210528 1.8890280611105263 -0.08104621326315789
C 0.9941628875210529 0.35086964651052627 -0.017646662963157887
C 1.7415259227210527 -0.15154400618947372 1.231010636936842
C -0.40696470427894726 -0.18944160728947368 -0.0658742232631579
C -0.9883282123789472 -1.0064382706894737 -1.0015125941631577
O -0.5705157124789473 -1.5973883136894738 -2.1491758982631577
N -2.282516208278947 -1.2159236750894737 -0.5978319304631579
C -2.443243371378947 -0.5179772656894738 0.5726377641368421
N -1.345299579878947 0.10319794711052627 0.9135111311368421
H 2.0216822465210527 2.2808549037105266 -0.03838018656315789
H 0.5304623436210528 2.249050009510526 -1.001797678663158
H 0.43659794202105284 2.2979902525105262 0.7628032244368421
H 1.5311650374210528 -0.023950818289473708 -0.9040727029631579
H 1.799324011921053 -1.2442915940894737 1.2448306145368422
H 2.7604810706210525 0.24857990841052627 1.267238055036842
H 1.2124677629210527 0.16632838071052627 2.1341113452368425
H 0.3486894019210528 -1.3510283959894738 -2.295165106963158
H -2.9607617969789475 -1.7773922060894738 -1.084651021063158
H -3.3786909776789473 -0.5105229564894738 1.1110114471368422
