15
026520
O 0.04834370200666667 2.5969117646799997 -0.6068914387266666
C -0.0019083443933333288 1.23816388368 -0.46841329292666667
C -0.22240428759333333 0.35645613747999993 -1.6742735367266666
C -1.1779837603933334 0.24543938887999994 -0.49883081762666664
N -0.5326441213933333 -0.47690846511999996 0.6150424325733334
C -0.09090713629333333 -1.70865621312 1.0482834505733334
C 1.2140861470066666 -1.48315220222 1.4404324352733333
N 1.6436432543066666 -0.20239179542000008 1.1241352828733335
C 0.5604178419066668 0.35586703818 0.6419006952733334
H -0.16446393489333333 2.99798958258 0.2441220204733333
H -0.6242103268933332 0.87785645398 -2.5399313481266668
H 0.4566415648066667 -0.45945524681999994 -1.9015415117266667
H -2.2466411522933334 0.4045750428799999 -0.5339091815266667
H -0.7273562289933333 -2.5722491307200004 1.1482217025733332
H 1.8653867831066666 -2.1704462389200003 1.9616531077733335
