15
026895
N 0.30536658570666675 2.14666666516 0.10218512837333334
C 0.17422628900666676 0.7906586167599999 0.03260342397333334
C -1.0118306397933332 0.11350883526 0.011523013373333337
N -2.2214284588933335 0.87107571856 -0.004736047726666664
N -1.0271959309933332 -1.2537100350400001 -0.018194636326666663
C 0.09127146160666674 -1.9039307494399997 -0.021841468226666664
C 1.3963517755066668 -1.2641402674399997 0.014308315373333335
N 2.5044134691066664 -1.88159498374 0.018457494473333336
O 1.3546689460066668 0.13744058406000004 0.04093729427333334
H 1.1591461099066667 2.52972137336 -0.2759295319266667
H -0.5487915962933333 2.6333579826599998 -0.13453889872666666
H -2.6772568523933336 0.85072339676 0.9048227660733333
H -2.8771338910933335 0.45155344136 -0.6577893535266667
H 0.08729785770666675 -2.9885171857399997 -0.05836085912666666
H 3.2908948749066664 -1.2328133925399998 0.046553359673333336
