15
027121
N 0.9080813368399999 2.1898810826000004 0.006383103773333334
C 1.0057774717399999 0.7755983397000001 -0.016998999126666667
C -0.07637197736000001 -0.06906670709999985 0.0014174126733333338
N -1.43203203016 0.2367396274000001 0.04438483687333333
C -2.44345607296 -0.6702918385999999 0.058700646173333336
O -2.29160589316 -1.8800713827 0.03619070317333333
N 0.42214541714 -1.3442174290999997 -0.031274832526666664
C 1.78367865374 -1.2220702755 -0.06778007232666666
N 2.16537235894 0.03509256240000014 -0.06067825872666667
H 1.40653021534 2.5658772711 0.8091435609733333
H 1.35999953054 2.5894805973 -0.8123608192266667
H -1.63521578406 1.2263081193 0.06478708827333333
H -3.43539940406 -0.1875271827999998 0.09389071087333334
H -0.17035351116000008 -2.1622593303999995 -0.027284449226666667
H 2.43284968864 -2.0834734536 -0.09852063162666666
