17
027769
C -0.025745128747058824 2.533673423947059 -0.2033547620470588
C -0.026075155747058827 1.0300409460470588 -0.2256629982470588
C -0.03142676324705883 0.33245174744705874 -1.3912119163470589
C -0.027688815247058823 -1.1066042932529414 -1.4145509783470587
N -0.026650847447058826 -1.830364337852941 -2.459039307447059
O -0.021450690547058827 -1.7356435493529414 -0.1472072152470588
C -0.025379657347058826 -1.032690485952941 1.0007522292529414
N -0.09116183294705882 -1.869521409552941 2.088421012252941
C -0.018731023147058826 0.3247771678470588 1.0231813853529412
H 0.8579993779529411 2.914449764747059 0.32223732255294124
H -0.03235808734705883 2.950479055547059 -1.2126293296470587
H -0.9022485954470588 2.9144214618470587 0.33410557085294124
H -0.03548179004705883 0.8195876073470587 -2.357259143447059
H -0.026502169847058825 -2.820215013852941 -2.2152045741470587
H 0.25010216945294117 -2.8047249920529413 1.9227325823529413
H 0.20316788035294117 -1.471664641352941 2.966306526652941
H -0.020368870647058827 0.8515475484470587 1.968383595652941
