17
028099
C -0.047128673247058814 2.7494981488941175 -0.1594166057529412
C -0.027212945147058812 1.2559009309941178 -0.1961552609529412
C -0.06270083104705881 0.4588520855941177 -1.2909721405529413
C -0.022017489347058813 -0.9091413698058821 -0.8203205505529412
C 0.037939553952941185 -0.9950270209058825 0.5391608885470589
C 0.04032219645294119 0.4065962206941177 1.0786412767470588
C 0.07158089285294118 -2.3883769101058823 0.8413293809470588
C 0.028584874952941184 -3.023289777305882 -0.3689912024529412
O -0.029431233947058814 -2.123632643705882 -1.4078655475529414
H 0.8506459536529412 3.155065353394118 0.3253167230470588
H -0.10154922844705881 3.169603153594118 -1.167519688852941
H -0.9056102744470588 3.129565636694118 0.4097068643470588
H -0.11210476314705882 0.7845030440941178 -2.321177077352941
H 0.9405861326529412 0.6467640303941177 1.6596340391470588
H -0.8135615481470588 0.6206706775941178 1.7349725770470588
H 0.12030028085294119 -2.876962235805882 1.8024697377470587
H 0.03135710155294119 -4.060589324305882 -0.6588134135529412
