16
028593
N -0.3668675859 3.2053626679000002 -0.3224954128625
C -0.5609559108 1.8358874207000002 -0.25412693446249995
C -1.6291652569 1.0099523676000004 -0.10239380966249997
N -1.1661600253 -0.30044789119999993 0.008117678237500037
C 0.11834297189999998 -0.21112389269999965 -0.08299743566249998
O 0.5698776121000001 1.0723282341000004 -0.24445580916249998
C 1.1145116139 -1.2912646592999997 -0.05249176506249997
C 0.9808113771000001 -2.3665574185000002 0.9764304583374999
N 0.6772896151 -2.6458985675999998 -0.42932245136249997
H 0.36084052740000006 3.4709138637000003 -0.9752515923625
H -1.2218566318 3.7061073212 -0.5225619774625
H -2.6780449844 1.2543766652000001 -0.07118522646249997
H 2.1017105319000002 -1.0053941426 -0.40240568226249995
H 1.8743381525 -2.8501513120000004 1.3618046389375
H 0.15789722770000003 -2.2690942822 1.6783720313375
H -0.3325692345 -2.6149963742999995 -0.5650367100625
