17
029522
N -0.840317116817647 2.5130524067352944 -0.18195930401764707
C -0.829108408917647 1.1074873755352943 -0.06821016981764706
C -1.919632322717647 0.2556967908352944 -0.07324051381764707
N -1.456522080317647 -1.0574642900647058 -0.04053896391764707
C -0.09918969971764702 -1.0246895929647055 0.0010063265823529385
C 0.3237937018823529 0.2734034122352944 -0.019574362317647063
C 1.818298395682353 0.28658983913529434 -0.011266893917647063
O 2.187834207982353 -1.1076316562647055 0.05903881698235294
C 1.048792058682353 -1.9758994336647058 0.027564370282352937
H -0.15719332251764706 2.9497448595352944 0.42531998488235295
H -1.749727808217647 2.9053179035352943 0.02872963498235294
H -2.975779313517647 0.4707899859352944 -0.10253728781764707
H -2.042150145317647 -1.8727018342647057 -0.032861282217647066
H 2.259417075182353 0.7282343415352943 -0.917682258617647
H 2.260833581782353 0.8040010313352943 0.8534237220823528
H 1.068506163982353 -2.6297842274647056 0.9135390674823529
H 1.102145032882353 -2.626146911664706 -0.860750886817647
