16
029885
C -0.045614137525 1.75152620496875 -0.556955139725
N -0.021128871525000002 0.2942868250687499 -0.529303691325
C -0.044370398225 -0.43043487243125006 -1.7004128226250002
N -0.025732932725000005 -1.70412848523125 -1.782881995025
C 0.023076080774999994 -2.44600733563125 -0.571305345525
O 0.042203016175 -3.65044699653125 -0.5845914591250001
N 0.048283918674999995 -1.73051903743125 0.6507231769749999
C 0.026825053074999994 -0.44569933833125003 0.645533805675
C 0.05373371347499999 0.3084193194687499 1.944324972875
H 0.852580880075 2.17367699426875 -0.09772642852500002
H -0.084774892725 2.07666543316875 -1.598133373825
H -0.925319084425 2.14475209126875 -0.03997565292500005
H -0.08175800952500001 0.17637141376874993 -2.605946744125
H 0.09127709807500001 -0.4184411300312501 2.753974656075
H 0.9279048268750001 0.9653976645687499 2.009167274875
H -0.837186260525 0.93458124906875 2.063508766275
