16
029924
C -0.0443197047 1.4363134913 0.0565572996
N 0.0024931975 -0.0100823623 0.0073909371
C -0.0302693473 -0.7845376459 -1.104433669
C 0.0174378857 -2.1180686148 -0.744130484
C 0.0814478077 -2.1680670225 0.669482901
N 0.2149550442 -3.3001468711 1.4597108711
C 0.0657307588 -0.845575866 1.1227555898
C 0.0950030857 -0.3672760764 2.4405230655
N 0.1127866886 0.0050317318 3.5419698894
H 0.8312023432 1.8355996727 0.5774037678
H -0.054048341 1.8215515383 -0.964138241
H -0.9437444624 1.7832042939 0.575259976
H -0.0841269771 -0.3323971928 -2.0826752883
H 0.0193816239 -2.9600663891 -1.418508317
H -0.2274524528 -4.1260641426 1.0836578063
H -0.0275216701 -3.1629219146 2.4314422358
