18
030926
C -0.5160483979444445 1.8417508367333333 -1.3861654815666664
O -0.4517954065444445 0.4127280752333334 -1.4609693218666664
C 0.21452539655555547 -0.18006633906666664 -0.4317849124666664
C 1.5422426935555555 -0.5332402127666667 -0.34629419466666644
O 2.5119219798555554 -0.31248975586666655 -1.2843208265666664
C 1.7311071943555554 -1.1859844296666666 0.8984004107333337
C 0.5035079530555555 -1.2153019323666667 1.5252579245333338
N -0.4263716112444445 -0.6126195034666666 0.7173443706333336
C -1.8286889039444443 -0.42216465156666666 1.0108142408333336
H 0.4878591032555555 2.2758553512333335 -1.3169826764666663
H -1.0036872831444446 2.1819391025333332 -2.3026193295666664
H -1.1040712762444445 2.1691712535333334 -0.5201473796666664
H 2.0685206652555554 -0.05705230176666659 -2.1010813441666665
H 2.6556145060555556 -1.5959759769666666 1.2720829438333339
H 0.21365138625555546 -1.6252779274666669 2.4794812084333335
H -2.0153802657444446 0.5123355780333334 1.5550679773333336
H -2.3909300954444443 -0.39820017096666666 0.07489893813333359
H -2.1919776379444444 -1.2554069953666667 1.6170174525333336
