15
031602
O 2.1901222492199994 1.855659425226667 -0.47228632424666667
C 2.065139668819999 0.6181301203266668 0.22445984125333335
C 0.6869448163199994 0.052329386426666735 0.12453594145333334
N 0.35337529651999944 -1.216225676873333 -0.028230558746666662
C -1.0109908006800006 -1.2457833067733333 -0.02311177274666666
O -1.7396832997800007 -2.3877923108733334 -0.16433866994666668
C -1.5233051677800007 0.015598272726666806 0.12365884635333334
O -2.7768109512800003 0.5338568105266668 0.16501855845333335
N -0.42738972068000036 0.8404995139266668 0.22319189935333333
H 2.0224934234199994 1.6783233457266666 -1.4044865059466667
H 2.7739296188199996 -0.1441749549733332 -0.12361824274666666
H 2.3250791822199997 0.8576482107266667 1.2630619218533332
H -1.1045496695800008 -3.1080260723733333 -0.2468381183466667
H -3.395046802480001 -0.19434731497333324 0.04022996415333334
H -0.43930784308000037 1.8443045512266667 0.2987532198533333
