15
031903
C -1.0460885166333334 1.8411770081466667 -1.7202103652733336
O -1.0921794165333334 0.4181983957466667 -1.8473917150733337
C -0.5152166745333333 -0.3011703455533334 -0.8878468112733335
C -0.4115388130333333 -1.6573517513533331 -0.7550693362733336
C 0.30548714126666665 -1.8584094121533332 0.4592523534266666
C 0.5900884417666667 -0.6279854304533332 0.9838343204266666
O 0.07298672306666676 0.34760991964666665 0.13462439052666642
C 1.2587437683666667 -0.19978257735333332 2.1364732955266668
C 1.8365900361666667 0.16024842494666666 3.1320633132266664
H -0.0129680602333333 2.201435130246667 -1.7081426790733336
H -1.5667643976333334 2.2291866700466665 -2.595531056273334
H -1.5508522520333332 2.1706726336466664 -0.8070021905733336
H -0.7976895888333333 -2.3960609145533334 -1.4363883039733336
H 0.5836204546666666 -2.8016030066533335 0.9023327524266664
H 2.3457811541666667 0.4738352556466666 4.009002032226666
