17
032655
C 1.3286181202470588 1.6380527266058824 0.3650046524294118
C 1.3086115637470588 0.11124245980588238 0.45986105722941184
N -0.04019475235294112 -0.4481352341941176 0.4414397010294118
C -0.7412247899529409 -0.8469597198941177 1.5289706583294118
N -1.9632881744529411 -1.2617690693941177 1.2342614845294118
C -2.061946882552941 -1.1215247362941176 -0.11346900527058812
C -0.8888212975529413 -0.6154673252941176 -0.6508753975705881
C -0.5422752041529411 -0.3282747451941176 -2.0306002386705884
O -1.2996761968529411 -0.47901525869411765 -2.9665824783705883
H 2.360181289447059 1.9996039413058824 0.40764266852941183
H 0.8844145172470589 1.9842955237058824 -0.5719570080705882
H 0.7708088373470589 2.0853903379058822 1.1923830862294118
H 1.8836585627470588 -0.33663004559411763 -0.35566430027058815
H 1.773835827847059 -0.2178523408941176 1.393333394829412
H -0.3114424962529412 -0.8203044314941176 2.5204897206294117
H -2.953801880452941 -1.3905331071941176 -0.6585614335705883
H 0.4925429559470589 0.04788102480588237 -2.195676561970588
