17
033053
C 0.5763318085 1.486004488 0.1859888646
O 0.8220651636 0.0998101093 0.1219258737
C -0.0548368374 -0.6459935067 0.9292487957
C 0.2971427399 -2.0817254129 0.7810791176
C 1.2248167944 -2.7308037354 0.0721573506
N 1.0595693285 -4.0891608966 0.3484298352
C 0.0214490082 -4.2671157492 1.2343002738
N -0.4038322663 -5.3655176631 1.7019138225
O -0.4575733937 -2.9945988476 1.5047661126
H 0.7001906629 1.8742246445 1.2088095972
H 1.3015518579 1.9738922203 -0.4687719075
H -0.4396742101 1.7352963008 -0.1572418509
H 0.0222769161 -0.3423513624 1.9893275821
H -1.1073942218 -0.4793923477 0.6355317452
H 1.977118229 -2.3518995713 -0.5953889975
H 1.5918880259 -4.856715476 -0.0169685425
H -1.1818877454 -5.2099416541 2.3364459977
