15
033810
C 0.0279466586 -1.18624296 -0.0138824813
C 0.0231531284 0.0159157435 0.012794205
C 0.0086385647 1.4384428143 0.0365544809
C 0.2785716498 2.2878231326 -1.1783762547
C 1.1876686815 2.4671139561 0.0155949326
C 0.437804168 3.2195632563 1.1212221312
N -0.6360372257 2.1864006302 1.122203278
C 2.5895643512 2.2328556111 -0.0270014573
N 3.7334079416 2.055651567 -0.0515789238
H 0.0395413161 -2.248313813 -0.0278409319
H 0.7263048569 1.7671966055 -2.0174544349
H -0.4110156843 3.0875671181 -1.439513824
H 0.9724758561 3.2350936009 2.0739586417
H 0.1286682167 4.2373965822 0.8591311195
H -1.5602221995 2.5317723152 0.8756623389
