17
035418
C 0.0121935093 -1.0978738953 0.5305465384
C 0.0370464035 0.0767383054 0.274150769
C 0.0646635662 1.4910189408 -0.0621522302
O -0.4329251599 2.355275403 0.9904770196
C 0.8378752336 3.063509576 1.0716921392
C 1.6679369687 2.7010664535 2.270795024
C 2.6536545384 1.863210382 1.9488322872
C 2.683948272 1.5094041716 0.4781899818
C 1.44435322 2.2276034273 -0.0826475695
H -0.0198285331 -2.1334429974 0.7643511158
H -0.5126413076 1.6519148926 -0.9819940495
H 0.681577496 4.1391046048 0.935316312
H 1.4567086265 3.0790048264 3.2642413258
H 3.3761873126 1.4568066733 2.6490393744
H 3.6062257211 1.8605291875 -0.0016118711
H 2.6417821503 0.4253271085 0.3191702972
H 1.6273538822 2.7441936801 -1.023954684
