19
035820
N -1.0415796911736843 -3.166230290657895 -0.3126569965578949
C -1.0724285871736843 -2.042800278657895 -0.5828260596578949
C -1.0831331709736842 -0.6147921388578952 -0.9409015717578949
N -1.9294850307736842 0.1460205972421047 0.0008236526421050439
C -1.0097453465736843 0.7544592596421049 0.9756300479421051
C 0.27207679632631576 1.1325523831421047 0.20356086404210505
C 1.6189995320263157 0.6260743692421049 0.7882093307421051
C 1.5075552209263157 -0.6443552528578951 -0.10205460145789491
C 0.3449191557263158 0.029560336442104873 -0.8926816148578949
H -1.5109348923736843 -0.5471249763578951 -1.9457522270578949
H -2.4000637813736843 0.8778684434421047 -0.5203446056578949
H -1.4951808243736842 1.5997205649421047 1.4689664904421051
H -0.7814252857736843 0.010763552442104807 1.7498502954421054
H 0.2414495709263158 2.170719881042105 -0.13756535435789496
H 2.461938820626316 1.2619833951421047 0.5080380963421051
H 1.6498780969263158 0.47208444324210497 1.8702503795421053
H 2.390373588826316 -0.9025134305578952 -0.6897089161578949
H 1.191752125026316 -1.5364984564578952 0.442903167142105
H 0.6450337032263158 0.3725075984421049 -1.883740376757895
