21
036135
C -1.7344027060904763 -3.201749453247619 0.8463260849
C -1.7346163082904762 -2.019719814147619 0.6276105590000001
C -1.7105305542904763 -0.583561200747619 0.3570223202
C -0.3056611613904763 -0.025941248547618923 0.1899308099
C 0.47724053960952384 0.3843140408523813 1.4128881827
C 0.008409147009523776 1.4365842491523813 0.4324845784
C 0.9948380516095239 1.9008513300523813 -0.6293514256999999
C 1.6121262838095238 0.5955576447523812 -1.1857265553
C 0.5100043090095236 -0.47508733674761894 -1.019315145
H -1.7427841869904763 -4.245208476847619 1.0416787515
H -2.296088310390476 -0.3796761356476188 -0.5506718563
H -2.220264832990476 -0.0547493428476189 1.1725502382
H -0.04047855149047619 0.3333628793523813 2.3651851776
H 1.5340395608095236 0.14631464395238103 1.4794063791
H -0.7667413581904762 2.1233456553523813 0.7578066623999999
H 0.45019913190952376 2.4344155397523815 -1.4180032548
H 1.755987927009524 2.587809495352381 -0.24341296680000002
H 1.9412351290095238 0.6976381549523811 -2.2230485129
H 2.497247853409524 0.3193776452523811 -0.6042596068999999
H 0.916631154009524 -1.4854638449476187 -0.9096093734999999
H -0.14639111709047614 -0.4884144250476188 -1.8994910467000001
