14
036764
N -1.722828675807143 -3.77924630635 -0.04538313033571429
C -1.704109840407143 -2.62480996125 -0.04831375453571429
C -1.684043654307143 -1.16116707935 -0.02106692523571429
N -0.316595639907143 -0.6590261256499998 -0.11799589043571429
C -0.266649857507143 0.8009884059500001 -0.03590963063571429
C 1.1051438989928568 1.2861617172500002 -0.06910176993571429
C 2.2413230913928572 1.6932668350499998 -0.07471095283571429
C 3.5264563530928577 2.1556584075500003 -0.08392984983571429
N 4.618597974292857 2.55043309085 -0.08937608533571428
H -2.257327570207143 -0.7902853537499999 -0.8802176618357143
H -2.223854148807143 -0.82850303975 0.8844354245642857
H 0.25688708469285704 -1.0670295478499998 0.6131059506642857
H -0.811051485707143 1.21328148415 -0.8969500699357142
H -0.761947529807143 1.2102774731500001 0.8654143456642858
