17
038334
C -0.911899980535294 1.3012588501705882 1.0389206020882353
C 0.569474444364706 0.8547319972705882 0.9565132692882354
N 0.244404739564706 -0.1303754942294118 2.0661345711882353
C -0.886822651735294 -0.2478072440294118 1.0592076703882354
C 0.1478299537647061 -0.20562304802941178 -0.11125529631176467
C -0.24341241343529396 0.17620479767058822 -1.560089386811765
O 0.440156585264706 -0.8030695959294119 -2.379924392811765
C 1.100778682164706 -1.5941371625294118 -1.5047473801117648
N 1.017364162664706 -1.3680667560294117 -0.2606096323117647
H -1.194530685735294 1.7626529598705882 1.9845462708882353
H -1.351278244135294 1.8010161994705884 0.17360381278823545
H 1.4718167859647062 1.4692057602705884 0.9707521194882354
H 0.8538816981647059 -0.9456738068294117 1.9559376945882354
H -1.716313697535294 -0.9444792726294118 1.1955714546882354
H -1.315877950235294 0.09640613357058819 -1.7595787795117648
H 0.102015579964706 1.1698547046705883 -1.8595655224117649
H 1.672412991464706 -2.392099022729412 -1.9654170751117648
