20
038933
C -0.7782809157000001 1.7963169561 0.02167644870499985
C 0.4739532249999998 1.7274147263 -0.8731632016950002
O 1.621766058 1.2319867176 -0.1555423651950001
C 1.3286932848 -0.14856779300000006 -0.5241527099950001
C 1.1045062911999999 -1.0884154622 0.671032791705
C -0.30284353350000015 -1.7034949389 0.6147893289049998
C -1.3932959361000001 -0.6219934797000002 0.607769334105
N -1.1406018580000001 0.41628682399999994 -0.3959966152950001
C 0.046924826799999986 0.2972229672999999 -1.262707351495
H -0.5340718663000001 1.9196365065 1.0850284490049997
H -1.5364371018000003 2.5377837343 -0.2611852752950001
H 0.7137394097999998 2.5458539486 -1.554008749495
H 2.1131807305 -0.5208551358 -1.195877661395
H 1.8629650599 -1.8766999222999998 0.6953561968049998
H 1.2239533723 -0.5005087426000001 1.5878712244050002
H -0.39280110740000007 -2.3185352491 -0.2907591121950001
H -0.46587714190000007 -2.3775826273 1.4619822771050002
H -2.3746090062 -1.0879629077 0.44104252760499985
H -1.4371520119 -0.14880098510000006 1.598997502405
H -0.13371177950000013 -0.07908513700000008 -2.272153038695
