17
039069
C -0.4334877752941176 1.7968904812352942 -1.2174795433882353
O 0.8184023584058825 1.9949718717352942 -0.5133279290882353
C 1.0802917130058822 0.5546406205352941 -0.4649634602882353
C 1.4434151813058826 -0.023742190364705873 0.8624009922117647
C 0.6873447636058824 -0.9568046493647059 1.4424050809117648
C -0.6357655243941176 -1.4671105790647059 0.9112444817117648
C -1.2374005858941177 -0.5898728829647059 -0.17255650018823532
O -0.8358264410941175 -0.828719092164706 -1.5469251304882352
C -0.3512602363941176 0.3133548826352941 -0.8940192373882353
H -1.2554370052941177 2.372362481135294 -0.7787533535882353
H -0.3468926516941176 2.030802651535294 -2.2871996431882353
H 1.8255852833058825 0.2895317404352941 -1.2298526818882354
H 2.3787867239058826 0.2929116859352941 1.315170450511765
H 1.0215632937058823 -1.4092663671647059 2.3731744369117647
H -0.5223127893941175 -2.492043633464706 0.5319802896117648
H -1.3448811347941176 -1.538513299364706 1.7449319694117649
H -2.2921251729941177 -0.3393937212647059 -0.07623022178823524
