18
039584
C -0.7870753825055554 1.671559334588889 -0.4442148939444444
C 0.6936188878944446 2.0090759025888887 -0.5117375189444444
C 1.4593147810944447 1.000626032588889 -0.08067382684444441
C 0.5793138827944445 -0.12758615491111114 0.4042744131555556
C 0.9031912237944447 -1.598616445911111 0.24344755085555564
O -0.27313584210555536 -2.3721924325111114 0.6012317127555555
C -1.4956403484055554 -1.7790428508111111 0.5596942783555556
N -1.8295061060055553 -0.6305856208111111 0.13704833275555556
C -0.7126728662055554 0.13597596868888887 -0.3869480182444444
H -1.2455256100055554 2.0787535957888887 0.4683284979555556
H -1.3660644111055555 2.047919028088889 -1.2928319036444444
H 1.0626838621944446 2.9729669044888887 -0.8438871398444444
H 2.5401111255944446 1.016510706288889 0.0036682742555556036
H 0.3605141026944446 0.03248218568888886 1.4736950226555556
H 1.1778048855944445 -1.848719150011111 -0.7881491253444444
H 1.6956203924944449 -1.9510099478111111 0.9098451724555556
H -2.236283722805555 -2.463977553811111 0.9679969655555556
H -0.5262688550055554 -0.19413950221111115 -1.4207877939444444
