19
039638
C -1.9932580902526316 1.8427777325631578 -0.20041526421052633
C -0.4842840827526316 2.0088894750631576 0.05401447978947368
C -0.5939509930526317 0.6202336474631578 0.7450108598894737
O -1.9700753586526316 0.4858471257631578 0.29314280038947366
C 0.27691143024736853 -0.49009034263684215 0.27700261028947365
C 1.1923974989473685 -1.1632793478368422 0.9699113142894736
C 1.8578979115473686 -2.183416943536842 0.09341373368947369
O 1.2369329788473684 -2.043171378336842 -1.1811851124105264
C 0.23622344604736867 -1.0297622227368421 -1.1321171116105264
H -2.6369831143526317 2.4868365029631576 0.41263278908947365
H -2.3301222590526316 1.8937098213631578 -1.2415628032105264
H 0.12824472824736866 2.0079829239631577 -0.8489554574105264
H -0.1778736036526316 2.835413437163158 0.6961174700894737
H -0.5507613343526316 0.6917571098631579 1.8401967338894736
H 1.4414442066473683 -1.0225266144368421 2.014721969689474
H 2.943803223747368 -2.019291980436842 0.0012665922894736763
H 1.7200914956473685 -3.2101384643368425 0.46996738488947365
H -0.7494924477526315 -1.452338379536842 -1.3735671384105264
H 0.45285436394736855 -0.2594321023368422 -1.8895958510105264
