18
040578
C 0.9764904759722223 2.105916178616667 -0.6258446579666667
C 0.8007478362722222 1.0273309127166668 -1.6394592694666668
N -0.24652916672777775 1.3126994032166668 -0.6608826844666666
C -0.5216825153277778 0.4243060946166667 0.4418067142333333
C -1.4460494237277777 -0.7717104139833333 0.24053097293333336
C -0.5206199484277778 -1.9772245243833333 0.013611088533333371
O 0.8287966236722223 -1.513639115783333 -0.03247100076666665
C 0.47133447177222226 -0.6288008568833332 1.0688810698333333
C -0.7829507698277778 -1.513828977083333 1.4024817892333332
H 1.6880163832722221 1.9180068486166668 0.17709835653333328
H 0.8731227355722222 3.1524469190166666 -0.9007487595666667
H 0.5450839823722222 1.2912641519166668 -2.662724518566667
H 1.3830116966722223 0.12140467501666674 -1.5216155377666667
H -0.9086921164277778 1.0366509336166667 1.2641028508333334
H -2.489928437027778 -0.7714231930833333 -0.04462371106666663
H -0.7883594315277777 -2.8743314167833334 -0.5279890946666667
H 1.3131328512722225 -0.37033095248333336 1.7074993282333333
H -1.1749252478277779 -1.9687366668833333 2.300347063933333
