21
040942
C 0.7181341740999999 1.6499669174285714 0.13603874236666666
O 2.0396635034 1.6612801486285713 0.7105175051666667
C 2.1117179973 0.2224693462285714 0.6905447575666667
C 0.6655258853999999 0.09786298062857139 0.15645248286666666
C -0.3467308737000001 -0.48187716267142855 1.1479042423666665
C -1.7900464025 -0.2652962142714286 0.6657967324666667
C -1.9478930968 -0.5707724177714286 -0.8005380877333333
C -0.9179196317 -0.7239459397714286 -1.6320856333333333
C 0.5211441032999999 -0.5853913375714286 -1.2054933443333333
H -0.009714188500000054 2.1654018557285712 0.7761471244666667
H 0.6981769274999999 2.1080755475285713 -0.8617127378333332
H 2.8926718626000003 -0.1398644663714286 0.007409173866666646
H 2.2924310595 -0.1963425141714286 1.6894307981666665
H -0.15772129720000005 -1.5580172012714286 1.2559937085666666
H -0.2049329673000001 -0.03399798997142861 2.137992826866667
H -2.4769641816999997 -0.8873266253714286 1.2530670969666666
H -2.1046553483999997 0.7711295124285714 0.8598904765666667
H -2.9634770096 -0.6656396736714286 -1.1777191974333334
H -1.0980457248000002 -0.9598421379714286 -2.6782247495333333
H 1.0856927035 -0.0280062316714286 -1.9646147279333332
H 0.9929425055999999 -1.5798663960714285 -1.1667971901333334
