18
041921
C -1.1212478014777776 1.155907712611111 0.2878404536555556
O 0.16699638982222242 1.744186897211111 0.1532164208555556
C 1.1302638983222222 1.031326179611111 -0.5712290696444444
C 0.7842509440222223 -0.31131196978888886 -1.1971147092444445
N -0.5616270029777777 -0.8297538539888889 -1.0707268600444444
C -1.1069300690777777 -0.3792690642888889 0.2197816407555556
C -0.26103786587777766 -1.040103825088889 1.3108012144555556
O 1.0946744132222221 -0.6084253553888889 1.3020466481555555
C 1.6266348586222223 -0.2666316153888889 0.05623348635555561
H -1.5193674056777777 1.5130939716111111 1.2445156705555556
H -1.7879590912777776 1.5241192819111111 -0.5099986800444444
H 1.8281662581222222 1.705232841711111 -1.0584685076444444
H 1.2775197328222223 -0.592154332688889 -2.123036769744444
H -1.1304919661777777 -0.4466791341888889 -1.8225587303444446
H -2.1353018750777775 -0.7454600155888889 0.3157682806555556
H -0.6489032924777777 -0.7977696812888889 2.3051874623555557
H -0.3138693928777777 -2.128376989988889 1.1665772626555557
H 2.678229268022222 -0.5279310469888889 -0.008835213744444403
