18
042435
O -0.10621874354999998 -1.5559913678833337 -0.045787931866666645
C -0.10892349704999998 -0.3418571203833336 -0.010349451366666648
C 1.19022632175 0.4533272168166662 0.01827709623333335
C 2.42284677995 -0.4623973340833336 -0.00376867036666665
C 3.67109647175 0.2946003756166664 0.02387909703333335
N 4.64994064595 0.9084631970166661 0.04613016623333335
C -1.36623027355 0.45287310241666634 0.007647865733333349
C -2.55860876145 -0.10870910398333367 -0.7577707377666667
C -2.56482541455 -0.1521818510833337 0.7289417055333333
H 1.20002407435 1.1430002437166664 -0.8349665013666667
H 1.19300950665 1.0914591254166661 0.9107808013333333
H 2.39510408635 -1.1466491883833336 0.8496333643333334
H 2.40239227355 -1.0948497970833337 -0.8964399816666667
H -1.25508499855 1.5308527749166665 0.03962445173333335
H -3.19378820265 0.6060847388166664 -1.2676427054666666
H -2.37807132275 -1.0385294729833336 -1.2845348694666665
H -2.38846244615 -1.1112386033833337 1.2019604626333333
H -3.20442650005 0.5317430645166661 1.2743858385333333
