16
042781
O -0.41910285960000004 -2.3778798993187498 -0.6921600874312499
C -0.44331515330000004 -1.2042716363187498 -0.46728787933124993
C -1.4705851764000002 -0.06868704051874985 -0.43086199513124995
C -1.1841622239 0.4901135748812502 0.99937403956875
C 0.3499958726 0.6461528225812501 0.81805044506875
O 1.4731965579000001 -0.12254781381874968 1.36267541636875
C 2.0009846042 -0.25602370811874975 -0.0016638462312499325
C 0.5641835458 -0.048173150018749666 -0.49326076593124996
N -0.4607077665 0.6580829736812501 -1.3683082021312498
H -2.4952400632 -0.1521796072187498 -0.7863330737312499
H -1.6648758502 1.4487195955812502 1.20176474066875
H -1.4925797431999999 -0.23290890301874967 1.75901772296875
H 0.6326755841999999 1.7048009735812504 0.79432873756875
H 2.7072246419 0.5485768356812502 -0.23600028403124995
H 2.4426696136 -1.2394556727187498 -0.17778395373124994
H -0.5403615839 0.20568065508125022 -2.28155101453125
