16
042789
O 0.010433109650000001 -2.6288233738250004 0.44163160674374985
C -0.004750286949999995 -1.4374725212250004 0.5213392298437498
C -1.07001564075 -0.33540168502500034 0.6701550194437499
C 0.03982883525 0.5003358352749996 1.3570212486437498
C 1.09559652515 -0.33211221812500025 0.5535914926437498
C 1.18555615975 0.24045856237499974 -0.8594730108562502
O 2.19329961845 0.2694583974749998 -1.51484470675625
C -0.16783045815 0.7848310550749997 -1.35787355615625
N -1.34021351625 0.2125497732749997 -0.67413497195625
H -2.00733868255 -0.5434694014250003 1.1891038254437498
H 0.019184905449999998 1.5789357749749997 1.19321961974375
H 0.09619589965 0.29038414977499993 2.4259530752437497
H 2.0797882528500002 -0.5638948927250005 0.9571781952437499
H -0.14749877695 1.874953348875 -1.2238678848562503
H -0.23579205295000003 0.6096706426749998 -2.43351595715625
H -1.74644389165 -0.5204034474250001 -1.2454832252562502
