13
043038
O -0.7997434305153845 -2.4076587069692312 0.041256589261538475
C -0.7552861976153846 -1.218639565469231 0.1270970507615385
C -1.7947199389153845 -0.075147615569231 -0.004881267638461521
O -1.5950237462153845 0.694715851730769 1.2146696334615383
C -0.3326438045153846 1.0703030921307688 0.6747641109615384
C -0.6556059789153846 0.7311921610307688 -0.7205890852384615
C 0.3545454374846153 -0.1926417943692309 0.09196581796153848
C 1.7506662193846152 -0.340829599869231 -0.06493653163846153
C 2.9402905045846155 -0.472437018069231 -0.19021201373846153
H -2.8290540127153845 -0.2202632596692311 -0.3006386350384615
H 0.2385468003846154 1.8665530472307692 1.1332616944615383
H -0.5104302563153846 1.165001800330769 -1.6980396092384615
H 3.9884584038846156 -0.600148392469231 -0.3037177543384615
