16
043188
O -0.14786861051249997 -2.87529653405625 0.14951821523125
C -0.22507916971249997 -1.71778376995625 -0.13412232806875002
C -1.3659360468125 -0.65329323855625 -0.22385977166875
O -1.7075988754125 -0.19704872545624985 -1.54887092976875
C -0.7893296485124999 0.9281247739437499 -1.47085021546875
C -0.21349069251249997 0.38422367954375014 -0.16936194866875
C 0.5803517622875001 0.9736889262437503 1.0077539815312502
C 1.5509876751875 -0.24172483225624974 0.8829210385312499
N 0.7856532525875 -0.7293494563562497 -0.31734762126875005
H -2.2283752815125 -0.7664777983562501 0.4375681040312499
H -0.10242149251249996 0.9718694304437503 -2.3220633205687498
H -1.3389349453125 1.8729133520437498 -1.37478088066875
H 1.0444005791875002 1.9361723645437503 0.7807546757312499
H 0.03502918178750003 1.0623245807437502 1.94951660423125
H 2.5863488428875 0.007144254643749903 0.64277547513125
H 1.5362634688875 -0.9554870071562498 1.71044892173125
