17
043179
O 0.3309396156941176 -2.637902657994118 0.3942374152117647
C 0.2939797584941176 -1.4391796849941179 0.3970143779117647
C -0.8991298821058824 -0.4881905310941179 0.4186981070117647
C -0.3860192431058824 0.5306446367058824 1.4449099694117646
O 1.0586771890941176 0.5457017429058824 1.2985683670117647
C 1.4493403365941175 -0.4328144624941177 0.3670819419117647
O 1.5285054709941177 0.06744530610588217 -0.9590611520882353
C 0.3780805498941176 0.8279381265058823 -1.3359535552882353
C -0.9453782982058825 0.11339480330588225 -1.0132507108882354
H -1.8354194906058825 -0.9711801115941177 0.6982768993117647
H -0.7600476089058823 1.5465789457058818 1.2791821927117648
H -0.6344957933058823 0.22791364400588243 2.4682552383117646
H 2.4342043658941175 -0.8235449063941178 0.6212633226117648
H 0.4103935689941176 1.8048405558058827 -0.8369546370882353
H 0.4771800332941176 0.9981872238058824 -2.4105419936882355
H -1.1254936586058824 -0.6940727573941177 -1.7307415941882351
H -1.7753169141058822 0.8242401271058823 -1.1009841881882354
