17
043720
O 0.7012875901588236 -3.1929872997411763 -1.9823800437647057
C 0.5212012119588235 -2.1964082980411765 -1.3622012509647057
C -0.6575679155411764 -1.3378936979411766 -0.8918573822647058
C 0.44807763745882356 -0.4852967554411767 -0.27931213476470573
O 1.4712434854588237 -1.3854729029411765 -0.7848019930647057
C 0.7627758337588235 0.9664067122588231 -0.2606285168647058
C -0.47501241684117645 1.7653602392588232 0.16103358733529438
C -0.5601552560411764 0.9267099437588233 1.4817196884352941
C 0.6781557060588236 0.13304020735882327 1.0516888629352943
H -1.2324213869411764 -0.8857854793411764 -1.7022972958647058
H -1.3288470355411763 -1.8434556974411764 -0.19509513456470562
H 1.6359355122588235 1.3449664258588236 -0.7777218510647057
H -0.25232997314117644 2.815896051758824 0.3564353882352942
H -1.3339676781411764 1.714839567458823 -0.5159284311647057
H -0.38199703254117645 1.5386260767588236 2.3678432231352944
H -1.4731231895411765 0.34423391445882334 1.6424797474352943
H 1.4767449071588237 -0.22277900804117667 1.6910235368352944
