17
043919
O 0.7365786502941176 -3.217585675123529 -0.029835118452941154
C 0.6708874521941176 -2.0117824914235296 -0.021573357652941154
C -0.6213609663058824 -1.1747898649235293 0.002071532347058848
C -0.1693677239058824 0.29213915947647084 0.0042025374470588475
C -0.7805166548058823 1.299650653676471 -1.0127236322529412
O -1.1102396125058824 2.2340263636764703 0.02921859494705885
C -0.7507529901058824 1.2874935334764706 1.0501318971470588
C 1.3329023583941177 0.20495951757647068 -0.018009892652941152
C 1.7987517243941178 -1.0485900783235294 -0.032205598652941154
H -1.2338542964058825 -1.4284197410235293 -0.8687833454529411
H -1.2083760773058825 -1.4387872774235293 0.8872759920470589
H -0.09352553120588236 1.7279234124764704 -1.7520880529529412
H -1.6737324235058821 0.9212535560764703 -1.5279367618529411
H -1.6287982825058824 0.9029009345764711 1.5864050135470589
H -0.04264569540588237 1.707141618976471 1.7743656552470588
H 1.9397795168941174 1.1055962599764708 -0.021442453152941153
H 2.8342705517941176 -1.3631298817235293 -0.04907300965294115
