12
045001
O -0.12348764700833335 -3.0633342963083336 -0.13249514676666668
C -0.15961945970833336 -1.8814582908083335 -0.15191378856666668
O -1.2990627207083332 -1.1250828896083336 -0.12362582716666667
C -0.9728140849083334 0.23946060659166646 -0.11392634466666668
C -0.19784921330833335 0.7509499341916666 1.0643481823333332
C 0.5371928929916666 0.28478647229166665 -0.1800728790666667
O 0.9438031527916667 -1.0652376529083334 -0.17703248386666667
C 1.3166201840916667 1.1579041488916668 -1.0062177029666668
N 1.9253372100916668 1.8949551224916665 -1.6556931906666668
H -1.6373477190083332 0.8554643715916663 -0.7039102261666667
H -0.22436343790833335 1.821568614391666 1.2314509638333333
H -0.10840915740833335 0.13002385919166626 1.9490884437333333
