14
045722
O 0.48642928055 -2.6667406980642854 -0.20375537219999998
C 0.42865718194999997 -1.4620146818642856 -0.1851620745
C -0.85323965645 -0.6476505198642855 -0.1724228758
C -0.6455348695500001 0.7091601776357144 0.5360472378000001
N 0.53429404325 1.4432959100357148 0.06975054580000001
C 1.53104133855 0.7220503277357144 -0.24563610489999999
N 1.56922873345 -0.6675089068642857 -0.24028076429999998
C -1.8464235918500003 1.5454611288357145 0.3973421889
N -2.81554649005 2.163793212435715 0.28978227130000006
H -1.14098773115 -0.47411521456428574 -1.2165629475
H -1.6438726525500003 -1.2362946374642856 0.2946399953
H -0.5110179184500001 0.5249932835357143 1.6134752504
H 2.46395769535 1.1970906079357144 -0.5441118516
H 2.44301463695 -1.1515199894642856 -0.3931054987
