15
045862
O -0.6587981231666666 -2.1498111590666666 0.8048705114666667
C -0.6262038570666667 -1.037858261266667 0.3303667152666666
N -1.7623111995666667 -0.38166355656666684 -0.10835750323333335
C -1.7473189586666669 0.8724323176333333 -0.7244472646333333
N -0.7673830369666667 1.673457415133333 -0.7654701669333334
C 0.4461904133333333 1.2650750265333333 -0.06602800503333334
C 0.6333748599333334 -0.23313402906666703 0.08765536216666667
C 1.9101078625333336 -0.8253321793666668 0.4986373250666667
O 1.4964691678333333 -0.8813972662666669 -0.8658725856333334
H -2.621630010666667 -0.9124234693666669 -0.07042890153333334
H -2.6936265660666665 1.1418389559333333 -1.1913146269333332
H 1.3156740253333332 1.6698895037333332 -0.5928618046333334
H 0.4294184453333333 1.7358508559333328 0.9286422616666667
H 2.7496692714333335 -0.1628820971666669 0.7056512641666667
H 1.8963677064333333 -1.7740420567666668 1.0289574187666666
