14
045849
O -0.10538489399285714 -2.660101140921428 -0.6741347767714286
C -0.09934384939285713 -1.514142192621428 -0.2973076622714286
C -1.3374307321928571 -0.7812868099214278 0.19400531852857142
N -1.612909169292857 0.48668621117857214 -0.46357304767142854
C -0.7899861775928572 1.4367691685785724 -0.32447598967142854
N 0.4540438873071429 1.4157781736785724 0.3144922906285714
C 1.453148852507143 0.44719055717857215 0.2423815849285714
O 2.594694706807143 0.7074472770785722 0.5489966237285714
N 1.1045579166071429 -0.8049468847214281 -0.2524381616714286
H -2.176777863892857 -1.458801569821428 0.03868055622857141
H -1.215106601292857 -0.6235382203214281 1.2778117310285715
H -1.049565696692857 2.420339040578572 -0.7175500475714286
H 0.8629619721071429 2.313799761078572 0.5356332298285714
H 1.917097649007143 -1.385193371021428 -0.42252164927142855
