15
045938
N 0.35396837488 2.2457665849333335 -0.09392993587333333
C 0.43203672878 0.9773273575333334 -0.14876584567333334
N 1.5284839406800002 0.14485623073333342 -0.2560104603733333
C 1.25819028288 -1.2808105161666665 -0.21795817227333333
C -0.27367075572 -1.3453255563666668 -0.16779574037333334
O -0.94020930132 -2.3438562827666667 -0.19001323097333334
C -0.7674436890199999 0.07649268593333347 -0.08619615927333332
C -2.01570043832 0.43692395753333346 0.6164071253266666
O -1.95449256882 0.4145688147333335 -0.7972008963733334
H 1.2718172611799998 2.6894759783333333 -0.15483889187333333
H 2.4648491244799997 0.5107650252333334 -0.20676750707333333
H 1.6230275605800002 -1.8130504229666666 -1.1053301340733332
H 1.67652481368 -1.7791790221666668 0.6672876091266666
H -2.59945991282 -0.3600256941666665 1.0738110508266667
H -2.05792142112 1.4260708596333336 1.0673011889266668
