15
046196
O -1.2610369392 -2.0277748633 -0.10489745247333332
C -1.2328771052 -0.8528023950000001 0.10391342042666665
C -2.2314789401999997 0.2358717975000002 0.5136825088266667
O -1.1626946473 1.2069702642000002 0.4657714216266666
C -0.17534164880000003 0.25269288349999997 0.08311022592666666
C 1.2403629734 0.24071781279999982 0.7170070658266667
C 1.721729239 -0.6172085035000001 -0.4758855019733333
C 0.8748046894999999 0.5578010132000002 -1.0170136093733333
O 1.5577411222 1.4609303021 -0.06130750257333334
H -3.027310225 0.44096029040000007 -0.21199395037333335
H -2.6628439736000002 0.12507595569999985 1.5155135357266667
H 1.5196516444000001 0.21689216720000015 1.7696627046266666
H 2.7866708979 -0.5199169174 -0.6826027063733333
H 1.3350219533 -1.6328003936 -0.5800735955733334
H 0.7176009595999999 0.9125905861999999 -2.034886564273333
