16
046273
O -1.3399126179499998 -2.1906841243749997 0.27430084485
C -1.3172076882499997 -0.9901716153749998 0.30352642235
N -2.2927469390499997 -0.02423189557499983 0.37007748944999996
C -1.3902178943499999 1.1321331168250004 0.38910047645
C -0.21915671214999977 0.115505883325 0.25487639755
O 0.7944715421500002 0.13120093852500014 1.27233125695
C 1.8172876161500002 0.26838386572500017 0.27145780225
C 1.8249548835500002 -0.9179614594749999 -0.63495360635
C 0.8176977094500004 0.19790351302500042 -0.8562089991499999
H -3.29918074455 -0.09038934507499974 0.38593364815
H -1.5174463712499997 1.8224703718250002 -0.45125408465000005
H -1.3737766730499998 1.682253701525 1.33421630525
H 2.6489273643500004 0.9274100734250004 0.48751767884999997
H 2.62786902715 -0.9450761924749997 -1.36534225855
H 1.49165451555 -1.8807757642749998 -0.26165404335
H 0.72678298225 0.7620289324250002 -1.77392533005
