18
047201
O -0.26804438478333337 -2.2783731705722223 0.49602208509444445
C -0.34283125798333336 -1.0837935074722223 0.29682354749444445
C -1.6572375422833332 -0.3465139583722223 0.13373612489444445
C -1.6377906587833335 0.6499381899277776 -1.0415862006055554
C -0.3661442779833333 1.4568825357277775 -1.0811034048055554
C 0.7661915423166666 1.0597111655277778 -0.5007580857055556
C 0.8912808706166667 -0.22502965687222254 0.22633498589444445
C 1.826954607116667 -0.38342745017222235 1.3979037817944446
N 2.1771554401166666 -0.9471592624722223 0.10601166219444444
H -2.464084279183333 -1.0776867138722224 0.04898248059444443
H -1.8114266462833335 0.21825865482777784 1.0640879468944444
H -1.7589587356833332 0.10998352752777762 -1.9917700642055556
H -2.5070511044833332 1.3129791246277778 -0.9687094957055556
H -0.38834353558333334 2.3935206269277773 -1.6312536219055556
H 1.6715360168166669 1.6554941533277776 -0.5719193748055555
H 2.411959041916667 0.4781468030277778 1.7094033548944445
H 1.5098804186166666 -1.0504652485722223 2.1953092320944445
H 1.9469544855166667 -1.9424658130722223 0.11248504589444444
