16
048319
O -1.8483867250312498 -1.3655670282812498 0.2640456697062501
C -1.2573037614312499 -0.8104365202812498 1.1559174131062502
C -0.05728509773125001 0.07546704981875019 0.9828432451062501
C 0.43725420926875014 0.6003795313187503 2.23294459710625
N 0.81296221366875 1.0071551839187503 3.24861811990625
C 1.06381505426875 -0.1493036500812499 -0.05874181229374986
C 0.5238428465687501 -0.7536324689812499 -1.36088659849375
C -0.4148609096312499 0.48864862701875 -1.5112019355937498
C 0.16188019526875008 1.0440565404187503 -0.20303869139374997
H -1.5748586991312499 -0.9216558483812498 2.21420403640625
H 2.07902100076875 -0.20717241538124975 0.3143078702062502
H 1.3013465562687503 -0.7796768908812499 -2.12719498879375
H 0.04545942516875012 -1.7295511836812498 -1.29339260469375
H -0.1337906421312498 1.1195907689187503 -2.35697644969375
H -1.4866380331312499 0.2979774513187501 -1.5387910117937498
H 0.34754236696875007 2.0837208532187503 0.03734314120625015
