17
048816
O -2.3700411553529412 -2.0311701835941176 0.7474043757941176
C -1.7804707337529413 -1.6251445451941176 -0.2214557935058824
C -0.5174224089529413 -0.8223502655941175 -0.1720398875058824
C 0.2363771204470586 -0.7836647623941175 1.1354111709941177
C 1.2039787934470585 0.35932321620588237 1.2467494678941176
C 1.3022047389470588 1.3569678162058825 0.3728885409941176
C 0.4477510377470586 1.4961064822058825 -0.8565447173058824
C -0.4056365031529414 0.2844157662058824 -1.1567940845058824
O 0.2599259426470586 -0.9502551749941175 -1.3778316918058824
H -2.1322629113529414 -1.8193902619941174 -1.2591284945058825
H -0.5041276310529414 -0.7488040618941174 1.9448872292941175
H 0.7619366538470587 -1.7391509678941175 1.2678957700941176
H 1.8560221245470587 0.3438556166058824 2.1160494310941176
H 2.0311428775470586 2.1458210579058825 0.5375245847941176
H -0.2187769821529415 2.3646845348058827 -0.7544207166058824
H 1.0722576165470588 1.7095991700058821 -1.7353293587058825
H -1.2428585799529412 0.4591565634058825 -1.8352658265058823
