16
049762
O -1.7958756332000003 -2.6919069968187492 0.013150374231250012
C -1.7269019134000003 -1.4829423840187494 0.04517390193125001
N -0.5645453683000003 -0.7711221799187493 0.16276563133125002
C 0.7095111277999999 -1.3399373696187493 0.32425125523125
C 1.6572564898999995 -0.4244153415187495 0.54982454203125
C 1.0492402395999996 0.9519116363812508 0.53785893533125
O 1.2124702230999995 1.6923758243812506 -0.70149593326875
C -0.1469655171000004 1.4188627627812505 -1.10231269166875
C -0.4493570774000002 0.6823841875812504 0.22083478393125
H -2.6088876092000004 -0.8171275571187495 -0.02024463876874999
H 0.7802402528999997 -2.4162406976187496 0.26693323583125
H 2.7038057591999993 -0.6324740886187494 0.7155241419312499
H 1.3183292243999998 1.577676075681251 1.39504688283125
H -0.7152670685000002 2.341914487881251 -1.26730384596875
H -0.2060805534000003 0.7875820536812506 -1.99677953666875
H -1.2169725764000003 1.1234595868812507 0.8567729617312501
