15
049899
O -1.8558619039999997 -2.576829606 0.5406664042333333
C -1.8237332621999998 -1.3860728887 0.3543593577333334
N -0.6667984036999999 -0.6325781637000001 0.22495192293333335
C -0.7484463245999999 0.818450629 0.07884851133333337
C 0.49139703320000017 1.4004759173 -0.5955091322666666
O 0.4297717657 2.4304001728999998 -1.2182731125666666
C 1.7936399720000002 0.6454022414999998 -0.3701291748666667
N 1.7177529464 -0.7108200295 0.14294115053333337
C 0.5864302577 -1.2416950662000001 0.35666207113333337
H -2.7295741436 -0.7575883595000001 0.25798128113333335
H -1.6293600426 1.0969364128999999 -0.5034730001666667
H -0.8319239684999998 1.3018925237999999 1.0644753657333335
H 2.3419172476 0.6382455179999997 -1.3198836495666666
H 2.4118711465 1.2505210410999998 0.30882494523333337
H 0.5129176801000002 -2.2767403429 0.6775570594333333
