16
050516
O -2.311539544675 -2.3778026219625 0.006973442243750002
C -2.251202617275 -1.1697807651625 0.01622963434375
N -1.079504156975 -0.4508652394625001 0.008685305243750002
C -0.983262602475 1.0277196490375 0.019849495443750004
C 0.5464131814250002 1.3061907356374998 0.004437857243750002
C 1.155974396325 -0.08158381356250022 -0.01398132835625
C 2.5792862538250003 -0.35126839316250025 -0.03256819235625
O 3.433715725325 0.5132704780374997 -0.03530204395625
C 0.18193097422500015 -1.0127279365625002 -0.010451462956249997
H -3.138234827775 -0.5098042791625002 0.031929930443750004
H -1.491018716375 1.4406480677375 -0.8560636737562499
H -1.4704905147749998 1.4259366770375 0.91404527574375
H 0.8494762251250001 1.8879081723374997 -0.8708729107562501
H 0.8697492008249998 1.8735702539374999 0.8819009479437501
H 2.849678142325 -1.4304609376625002 -0.04458246775625
H 0.25902888092499987 -2.0909500470625 -0.02022980875625
