18
051629
N 1.504950971022222 3.380842026322223 -0.34370038158333344
C 1.5242205388222219 2.1209434875222226 -0.3906742455833334
O 0.36393490812222185 1.4358950813222227 -0.5020453453833335
C 0.464416432622222 0.025857947322222685 -0.4720029506833334
O 0.7671215957222219 -0.45344464747777735 0.8373155767166665
C -0.42741403437777814 -1.2090505691777773 1.1577916107166666
C -0.6437320502777779 -2.035701839977777 -0.13325439738333344
C -0.9092380987777782 -0.6051194507777775 -0.7023198937833335
C -1.572206014377778 -0.2883574640777775 0.6790597923166666
H 2.455917248122222 3.7378804038222224 -0.27499612728333345
H 2.412155423322222 1.4770515679222225 -0.35638485288333344
H 1.248063924322222 -0.2969327407777773 -1.1692229595833334
H -0.3364863772777782 -1.6245266933777773 2.159066623016667
H 0.2119520026222219 -2.6005340056777775 -0.5111851714833334
H -1.544742075477778 -2.6507146594777775 -0.11866964068333341
H -1.389242467077778 -0.41380931837777757 -1.6595872252833335
H -2.558113479577778 -0.7450137660777774 0.7750271145166665
H -1.571558447477778 0.7447346410222226 1.0257824743166666
