18
051789
N 1.3238984563444443 3.4733270338722226 -0.3876243322777778
C 1.3756931118444442 2.218702622072222 -0.5001369396777778
O 0.23320913144444422 1.4950076364722222 -0.4762641890777778
C 0.38430564174444437 0.09333928087222221 -0.5185835165777778
O 0.8549488970444443 -0.34525456422777756 0.7439979511222221
C 0.29348301434444424 -1.6217673978277776 1.0508516020222223
C -1.017234023455556 -1.6900196712277777 0.28801660782222227
C -1.9119670808555558 -0.48691150052777754 0.4056321731222222
C -0.9433808681555558 -0.5908245581277778 -0.7445490688777778
H 2.2625456773444443 3.8637477441722226 -0.4418783865777778
H 2.2785037521444442 1.6079165660722223 -0.6290671302777778
H 1.1120724260444443 -0.1631328316277778 -1.306803018877778
H 0.9668957514444443 -2.4307766720277777 0.7299776684222221
H 0.18473792034444436 -1.6752051884277774 2.139206951122222
H -1.4358909180555557 -2.6615826970277774 0.05592531952222224
H -2.9619407483555555 -0.6211989022277775 0.1738543291222222
H -1.7027353040555555 0.2455455441722223 1.1776762010222221
H -1.2971448371555558 -0.7109124444277777 -1.7602322210777779
