18
052741
C -0.70646000395 3.4540837715555557 0.38993168770555553
C -0.51564605255 2.011125139055556 0.40693871810555554
C -0.34170533375 0.8197041122555557 0.43155170020555556
C -0.18736858745 -0.6295123250444443 0.43377509630555555
C -1.54927936195 -1.331214917344444 0.5348477169055555
O -1.7181079177499998 -2.340434686944444 1.1655860107055556
C 0.51341870215 -1.1397348761444444 -0.8324583745944445
C 1.9488131800500001 -1.507270681644444 -0.7762389935944445
N 0.91477073085 -2.547025143344444 -0.9140150705944445
H 0.25285336444999995 3.9803084897555556 0.44170138830555555
H -1.21288624605 3.7762587356555555 -0.5263029333944444
H -1.31366472235 3.7843809482555555 1.2396510092055555
H 0.38973291074999994 -0.9640567820444441 1.3049923820055556
H -2.36552281835 -0.8533978966444442 -0.048123694194444455
H 0.10534296654999997 -0.7369859868444442 -1.7562863551944445
H 2.58119343325 -1.371805653144444 -1.6488079970944443
H 2.45960236015 -1.393937647244444 0.17676773490555553
H 0.74491339595 -3.010484600144444 -0.023510025694444492
