16
053279
C 1.3240628906812502 2.7782855192812503 -0.37803502913125
C 1.17549820578125 1.36197307068125 -0.08336073813124997
C 1.04268719388125 0.1892372656812502 0.15675182016875003
C 0.94950135298125 -1.2156327189187497 0.43543942586875006
O 0.06166553548125009 -1.6462771065187498 1.48753286566875
C -0.2598077042187499 -2.0315335183187497 0.15300573436875003
C -1.4960047658187499 -1.44302391181875 -0.49049001153124994
N -2.13886558171875 -0.5287536196187499 0.27569458666875
O -1.8484124754187499 -1.80612314591875 -1.59570343483125
H 2.3333038033812503 2.9998482019812505 -0.74112072793125
H 0.61309536358125 3.1008466985812504 -1.14614738113125
H 1.15164368898125 3.38693967158125 0.51628421926875
H 1.89823557508125 -1.7516398348187496 0.43358397596875
H -0.11211722031874993 -3.08240326711875 -0.08944172663124997
H -1.7597520921187502 -0.26677610001874985 1.1700382079687501
H -2.93473377021875 -0.04496720471874993 -0.10403178663124998
