18
053310
C 1.3497740269111111 3.3070183410166667 0.059275861394444435
C 1.2825610428111112 1.8567943259166668 -0.04211274310555556
C 1.230768212011111 0.6553147606166669 -0.11563634100555556
C 1.1828765928111111 -0.7750943619833333 -0.23864764560555557
N 0.6371349543111111 -1.552689769683333 0.9017437228944445
C -0.10449759068888897 -1.5350140740833331 -0.3644260671055556
C -1.4529246601888888 -0.8460633268833333 -0.34291636980555557
C -2.482614653488889 -1.6665610301833333 0.40530954969444444
O -3.569492460888889 -1.9613370639833332 -0.022304400305555555
H 2.387634507111111 3.6571741224166665 0.04036513239444445
H 0.8203064861111111 3.7906878525166667 -0.7689505997055556
H 0.898272874411111 3.658243210416667 0.9934855418944444
H 2.029555887011111 -1.212892011283333 -0.7639422300055555
H 1.158117347111111 -2.4198341853833334 1.0023534474944444
H -0.05750441508888904 -2.4288288021833333 -0.9847461503055556
H -1.341475822988889 0.1127515658166669 0.17933948559444443
H -1.8172627837888888 -0.6504327333833331 -1.3554314946055555
H -2.151229543488889 -1.9892368196833332 1.4172413001944444
