21
053675
C 1.618807166495238 4.44474721567619 -0.42087706317619045
C 1.436090016195238 3.01408357987619 -0.2269356762761905
C 1.2779189359952379 1.83156440657619 -0.07137162877619047
C 1.112210445795238 0.39898820117619005 0.13018397662380954
O -0.12701122300476198 -0.03255259832380997 -0.40974582967619044
C -0.33305979270476205 -1.41284962482381 -0.26352858617619046
C -0.7434305535047623 -1.9822164294238096 1.1269286480238094
C -1.7738495714047622 -2.8777507892238097 0.3837008768238095
C -1.6688684010047619 -1.9210528248238097 -0.8365500387761905
H 2.5336150215952378 4.65827224597619 -0.9846095496761905
H 0.7790741010952379 4.8736159003761905 -0.9786689557761905
H 1.685242404795238 4.97387762577619 0.5361272509238095
H 1.943589849995238 -0.14707351422381 -0.3493164997761905
H 1.164334101995238 0.1651227320761901 1.2066401907238096
H 0.5225020576952379 -1.97338430452381 -0.6749849987761904
H 0.018139491695237986 -2.46904469022381 1.7405648130238096
H -1.239917135104762 -1.20442509812381 1.7149012668238095
H -1.3679927075047622 -3.86861863412381 0.1627386091238095
H -2.7560370527047624 -3.0009228604238096 0.8433704427238096
H -2.414316643704762 -1.1226610964238102 -0.7868960770761905
H -1.667040512704762 -2.34771944282381 -1.8416711708761906
