17
054996
O -0.1415448671 0.0530917106 -0.721804978
C -0.3764831095 0.9200033356 0.0681768776
O 0.5021105737 1.295856302 1.039145279
C -1.6029984696 1.7830514902 0.1782818866
N -2.2209275298 1.6617450833 1.5311073863
C -1.3264756786 2.7942152992 1.2215065283
C 0.0787370673 2.4917174938 1.721365595
N -1.7571029271 4.7765297808 2.5570357612
H -2.4307938321 4.3186947932 3.1637173767
H -1.99982185 5.7615187313 2.5413689977
C -1.8246432982 4.2142133772 1.2065041214
H -2.222207401 1.9379946701 -0.6958787775
H -3.189662146 1.9703333863 1.4476844821
H 0.11006306 2.3041527727 2.7960264661
H 0.7750686597 3.2991760895 1.4729137528
H -1.1724576843 4.8167914187 0.5626048212
H -2.8285049775 4.2312872257 0.7449271435
