15
056720
O -0.4719281627599999 1.8244102620999998 -0.6419280086733332
C -0.8043249012599999 0.44969911279999997 -0.5583730541733333
C -0.46262417345999984 -0.2868657618 -1.7780777986733332
C -0.1548906582599998 -0.8719944466999999 -2.781103144073333
C -0.1523188070599999 -0.18884754730000003 0.6791861255266667
C -0.9157871055599999 -0.24733616800000002 1.939384963526667
O -0.7573731760599999 -1.4070991711 1.1228680827266668
C 1.2895991175400001 -0.11902395670000004 0.7071935574266668
C 2.48728260904 -0.017343726700000006 0.6882951951266667
H 0.47077084404000025 1.8791300185000002 -0.8421486293733332
H -1.8881196196599999 0.4121410822 -0.40560696417333325
H 0.10744661064000005 -1.3958441347 -3.6671911308733334
H -0.37756455745999984 -0.2624887697 2.8844383877266666
H -1.9176077884599998 0.17869428649999997 1.9683304621266666
H 3.5474397687400003 0.05276892059999996 0.6847319558266667
