19
056830
C 0.6696642282263158 2.055003066963158 0.33321000428947367
C 0.7542525442263158 0.5155423591631579 0.2548887671894737
C 1.4871221510263157 -0.03225478533684212 1.3967214169894735
C 2.069608674626316 -0.481195569136842 2.3479104721894735
C -0.6501626350736842 -0.10031192383684207 0.19231992878947365
C -1.5159488235736842 -0.12907266563684205 -1.1028290816105262
C -0.6259566681736841 -1.244484353736842 -1.7030050668105265
C -0.9267906962736843 -1.572071296136842 -0.22068846521052632
O -2.338125593473684 -1.182754539736842 -0.46507300171052635
H 1.6681835205263158 2.496617405563158 0.37956366428947363
H 0.1544612616263158 2.452583589463158 -0.5465941263105263
H 0.11877939262631576 2.365993667763158 1.2255912996894738
H 1.3105438396263158 0.2577273366631579 -0.6542194574105263
H 2.592506352126316 -0.8789364424368421 3.1821207513894736
H -1.2397422477736841 0.18681422926315788 1.0668380500894736
H -2.045314751473684 0.6821680300631578 -1.6039873913105263
H -1.1337820353736843 -1.889133524136842 -2.4208689360105264
H 0.3981941794263158 -1.0129805959368423 -2.0017287181105266
H -0.7474926928736843 -2.489253988836842 0.3398298895894737
