19
057635
C 1.204388876057895 1.5278573572999998 -0.30634755378947376
C 1.007843168857895 0.006271255699999995 -0.4621040242894737
N 1.648778914157895 -0.6606100379 0.6824053930105263
C -0.500791783542105 -0.3670310863 -0.6463291539894738
C -1.3980453095421048 0.18748901099999998 0.43601146611052627
C -2.4006525229421047 -0.6382760339 1.1215658866105263
O -1.179295922442105 -0.28657215199999997 1.7747828731105262
C 1.710813934257895 -0.4363433894 -1.6840860331894738
N 2.228698732657895 -0.7917224979999999 -2.653856845789474
H 2.269986172357895 1.760424917 -0.28442997768947376
H 0.7342044745578951 2.0764077797000002 -1.1270747135894739
H 0.764668923657895 1.8604555136999998 0.6378070366105264
H 1.061116963757895 -0.5169357361 1.4999455026105264
H 1.669208055557895 -1.6646975882000001 0.5251140338105262
H -0.8574726351421049 0.005673097399999996 -1.6140398651894736
H -0.5775193779421051 -1.4589727029000001 -0.6728676259894737
H -1.588860255342105 1.2595419648 0.3878232681105262
H -3.2955675717421054 -0.17403941690000002 1.5319904809105265
H -2.5015028372421053 -1.6889202550000002 0.8536898526105263
