18
057711
C 0.8021706965666667 1.6268921742166667 -0.4167988891277778
C 0.6387222114666667 0.09110355451666668 -0.4232681261277778
C 1.1811989840666668 -0.5218684750833333 0.8856386262722222
C -0.8478213922333333 -0.2907968167833333 -0.6356961553277778
O -1.6370920376333333 0.24042369071666667 0.4257740566722222
C -2.389191499233333 -0.6090323277833334 1.1611652644722221
O -3.0713649614333334 -0.24003552378333334 2.065592014772222
C 1.3761926167666667 -0.4739339777833333 -1.5646117315277779
N 1.9419885705666668 -0.9254080546833333 -2.465660998627778
H 1.8498585453666667 1.8997442019166666 -0.27025411142777783
H 0.46256764786666676 2.062785298216667 -1.3601549997277778
H 0.20888761986666682 2.0496366606166667 0.39680257557222215
H 0.6354319217666667 -0.10990685898333333 1.7378875764722221
H 1.074534637766667 -1.6104483459833334 0.8896892460722221
H 2.2405282655666667 -0.2842753269833333 1.007321734272222
H -1.2145316263333332 0.1365136277166667 -1.573720256527778
H -0.9552795355333332 -1.3811435739833333 -0.6857801072277778
H -2.296800665233333 -1.6602499260833334 0.8260742810722221
