23
060148
C 0.755840301021739 2.731493952469565 -0.3152297392434782
C 0.909337306321739 1.2040128551695652 -0.3008542988434782
C 1.754120761621739 0.7616992946695652 0.9021829674565217
C -0.4750108602782609 0.5295430574695652 -0.3520744782434782
C -0.48117586807826107 -0.9869559808304349 -0.5354841198434782
C -0.24522504587826088 -1.9155678780304346 0.7041496085565219
C -1.489027016178261 -2.7115349330304346 0.2822698069565218
O -1.934425365178261 -3.7794912143304344 0.5871453496565218
C -1.879696982378261 -1.6512604935304347 -0.7571308107434782
H 1.7319283673217392 3.2271584465695655 -0.3338484302434782
H 0.19000014112173902 3.0697557734695655 -1.189679564343478
H 0.22545399142173905 3.079831080069565 0.5793621717565218
H 1.448140458621739 0.9132521058695652 -1.214842686543478
H 1.9578981462217389 -0.31232051843043473 0.8918431044565217
H 2.718628521221739 1.2801335528695652 0.9096278412565219
H 1.246563776721739 0.9974237972695652 1.8455474987565217
H -1.0397279205782608 0.7857466459695652 0.5572611062565218
H -1.0357407048782608 0.9716731539695652 -1.1868717256434782
H 0.19783150072173905 -1.2647069968304347 -1.348681858243478
H 0.687391238721739 -2.4818897368304347 0.7664499350565218
H -0.4036453250782609 -1.404464558030435 1.6606424354565217
H -2.706335723978261 -1.0273629761304346 -0.39593516134347817
H -2.133123698578261 -2.0161684298304348 -1.7558489523434782
