16
061692
C 0.13703166209999992 1.5395240791312501 -0.4898057020749999
C 0.14260698439999994 -0.0038090078687499918 -0.4396630688749999
O 0.9042861629999999 -0.44387089746875 0.7120331589250002
C 0.3425733328999999 -0.31003469316875 1.936496999625
N 1.0567956599 -0.48693488696875 2.961086773725
C -1.2345945717 -0.52725445896875 -0.4227546164749999
C -2.3676719458 -0.9257641395687499 -0.4200401345749999
C 0.851828 -0.5429812924687499 -1.6061412361749998
C 1.4240837488 -0.9443903496687499 -2.581050762475
H 1.1687567938 1.8966134875312501 -0.4822160259749999
H -0.3612604956 1.88397827863125 -1.398097853975
H -0.3929926001000001 1.93955829223125 0.3780572348250001
H -0.7273734644000001 -0.07801088886874999 1.9140201447250003
H 0.48741596039999996 -0.38639963406875 3.7993138961249997
H -3.3641607233 -1.29498152746875 -0.4242905005749999
H 1.9326754956 -1.31524236096875 -3.4369483067749997
