20
062027
C 0.6248914784949999 2.082693930605 -1.314473895615
N 0.895365405095 0.656343568005 -1.358389567515
C 0.9026204771949999 -0.10004283759499999 -0.11943292401500005
C -0.494560975205 -0.30898247449499994 0.4783690490849999
C -0.4664324876050001 -1.139238654595 1.7564627506850001
C -1.805445418405 -1.4061327615950001 2.4179603790849997
O 0.5720683541949999 -1.5620909066950002 2.2118537106850003
C 1.173606804995 0.06013946840500006 -2.5541155194150003
O 1.189465563695 0.612649127405 -3.634015246215
H 1.310190707995 2.581499153705 -0.618746560815
H 0.770720190395 2.4778388968050002 -2.319904728215
H -0.40342908210500017 2.292309500605 -0.996970502715
H 1.360098093595 -1.074367210295 -0.3103144480150001
H 1.543032051395 0.401397546205 0.615351513285
H -0.9801222941050001 0.649745842205 0.702373854185
H -1.151691988705 -0.803528064695 -0.24957834621500008
H -2.3022909872049997 -0.46281120869500003 2.6710339615849996
H -2.4707036379050002 -1.9393690837950002 1.7295161744849998
H -1.6605062372050001 -1.999518976795 3.3213004173850003
H 1.393123981395 -1.018534854695 -2.428280071715
