18
062147
O -0.5015214713555555 1.5885696767722224 0.7166512975499999
C -0.39214793745555543 0.17912264917222223 0.7745165844499999
C 0.27009002434444457 -0.4026642162277778 -0.48298482565
C -0.49059272225555545 -0.02885929112777777 -1.7647793143500001
C 0.29289160674444453 -0.3751998405277778 -3.00931228025
O -0.10499819035555547 -1.0687495371277778 -3.90807088395
C 0.3532626634444445 -0.28203907272777784 2.04799902685
C -0.25683384565555545 0.22222657667222223 3.27561641925
N -0.7395979833555555 0.6117221094722223 4.24994516015
H 0.38532266564444456 1.9679572597722224 0.7135697339499999
H -1.4271198499555555 -0.17560549802777778 0.8345847452499999
H 1.3042294662444445 -0.030350407927777795 -0.5405669494500001
H 0.3373606308444445 -1.4932746323277777 -0.39104176185000017
H -1.4651091287555555 -0.5228894892277778 -1.81291377865
H -0.6563205525555554 1.0569221804722222 -1.75768558665
H 1.3147158876444445 0.07446064997222224 -3.04295790145
H 0.3790176209444445 -1.3767268684277776 2.08970867775
H 1.3973511158444445 0.05537775137222223 2.00772163705
