20
062159
C -0.2635599759099999 1.4236580966 0.019610174209999998
C -0.19494657740999988 -0.029113781300000002 -0.46695044309
C 0.6185211653900001 -0.9216499756 0.49013887171000003
N 1.9998894363900002 -0.5017495964 0.65200434521
C 2.49051856409 0.017081934899999984 1.8118726244099999
O 1.8482070737899998 0.2020047581 2.82298690651
C -1.6034755835099999 -0.6296556906 -0.65471416329
C -2.36016425271 0.02581819959999998 -1.7880793317900001
O -3.46208388921 0.5017352837 -1.70651173439
H 0.7365429151900001 1.8535030432000001 0.11639687350999994
H -0.8335802306099999 2.0490025551 -0.67447050889
H -0.74823886161 1.4818575992 0.99986914321
H 0.30782724119000016 -0.046446065400000014 -1.44672880129
H 0.1768501481900001 -0.9024364982 1.49018347181
H 0.5961151591900001 -1.9589224076 0.13266729681
H 2.63651745189 -0.6112927902 -0.12157256849000003
H 3.56939852869 0.25609318309999995 1.72810484121
H -1.5121403123099997 -1.6966456003 -0.9086009134899999
H -2.19931596721 -0.5497206586000001 0.25994476480999995
H -1.80288203351 0.03687841069999999 -2.75615084869
