19
063325
C -0.40845739888947374 1.8108670185789473 0.10955102611578944
C -0.5278034094894737 0.2748290708789473 0.05487765271578945
C -2.0025121122894736 -0.14733306402105267 0.07566056611578945
C 0.2733739372105263 -0.3235313993210526 -1.1276719017842107
C 1.5291136649105264 -0.9293746493210526 -0.5246602041842106
N 2.5136025633105263 -1.3633688096210528 -1.1957422874842105
N 1.347016175010526 -0.9152019825210527 0.8583900031157895
C 0.19076098621052628 -0.2880029054210526 1.2939721877157895
O -0.1537410723894737 -0.1907590163210527 2.4467324163157893
H 0.6376451197105263 2.132976723678947 0.07805121071578945
H -0.9261300535894738 2.2589701851789474 -0.7445809788842105
H -0.8558436516894737 2.1955112820789475 1.0299409355157894
H -2.5364835619894737 0.2854434604789473 -0.7763598402842105
H -2.1072158833894736 -1.2358844799210527 0.024584417115789445
H -2.4801661409894735 0.19451424087894734 0.9974887904157895
H -0.28612127828947376 -1.1189516858210526 -1.6301459129842106
H 0.5394719641105262 0.4112424405789473 -1.8901381335842107
H 3.2471114851105263 -1.745243484521053 -0.5957190238842105
H 2.006378667410526 -1.3067029455210528 1.5157690772157895
