21
063520
C -0.12832654884285716 1.838584578152381 -0.9928672948666667
C -0.15246962374285716 0.325497712752381 -0.8852475963666666
C -1.329305037942857 -0.329764444347619 -1.5833035982666668
C 1.174182571457143 -0.408148603847619 -0.8894042947666667
C 0.3719630907571428 -0.30923698424761903 0.37909015003333335
C 0.8057825675571428 0.405585674652381 1.6756984281333334
C 0.24250970175714281 -0.801398772347619 2.4497893651333333
O 0.21214215705714284 -1.099800986147619 3.607401425633333
C -0.24357540464285715 -1.489071158547619 1.1597764222333335
H 0.7414450387571427 2.268443250852381 -0.48762043066666666
H -0.09167893694285717 2.152748733152381 -2.042430925966667
H -1.0268942484428571 2.2833521321523813 -0.5481421022666666
H -1.331695775342857 -0.08608665584761899 -2.6520604716666667
H -1.301155991842857 -1.419440911347619 -1.4918239808666667
H -2.282563550342857 0.016261072552381017 -1.1654671696666667
H 1.2262034857571429 -1.373465780547619 -1.3848737675666667
H 2.0856629129571425 0.17829512905238099 -0.9623448182666667
H 1.8799589174571427 0.564419626452381 1.817317409233333
H 0.28673017125714284 1.343630978452381 1.9022134847333332
H -1.333961532442857 -1.582617667147619 1.1053828287333332
H 0.19504603575714285 -2.477786923847619 0.9889169373333334
