17
063737
C -1.4986406996117647 1.6409189735294119 0.30354658940588236
C -0.8644115939117648 0.27249299612941175 0.12682235170588235
O -1.8141410903117647 -0.7843568912705883 0.19469507060588237
C 0.059200147888235244 0.037304152829411755 -1.1081390881941178
C 1.179362355688235 -0.4538280726705882 -0.17478565849411765
C 2.112590182188235 -1.5848805870705882 -0.30249539909411766
O 2.566748987088235 -0.23462220667058822 -0.33728469699411767
C 0.3598114486882352 -0.05386425647058826 1.0427135263058824
O 0.5452163625882352 -0.010201219370588238 2.224149366105882
H -0.7589745983117648 2.440346638329412 0.19673184680588235
H -2.2875338377117647 1.7891962904294119 -0.4400943263941176
H -1.9388348689117647 1.7278197298294118 1.3032304481058823
H -2.195286153511765 -0.7774385710705882 1.0808734961058823
H -0.33073007621176476 -0.6958620942705883 -1.8146299418941174
H 0.32264087538823516 0.9592407948294117 -1.6312200701941175
H 2.3906487195882353 -2.1505214551705882 0.5850202959058823
H 2.152333839388235 -2.121744221870588 -1.2491338097941176
