19
064026
C -0.17811810269473688 1.6157393617210527 -0.5933932075526316
C -0.6102106960947369 0.1705308523210527 -0.3093984583526316
O -1.9945155769947367 0.10844848702105268 -0.022599145952631627
C -0.15690706089473688 -0.7663441679789473 -1.4703072807526316
C 1.1410500150052632 -1.3516235592789472 -0.9682833694526316
C 1.322510302905263 -1.1311889603789473 0.3345654105473684
C 0.17187756150526312 -0.38556460577894736 0.9055704928473685
C 0.10601065980526314 0.2016488008210527 2.2482213446473684
O -0.5537604398947369 -1.0306787641789472 1.9622746985473685
H 0.9013382925052632 1.6788613908210528 -0.7605471995526316
H -0.6765197174947369 1.9917988599210528 -1.4954428776526316
H -0.4403575718947369 2.2690159196210526 0.24287116434736838
H -2.456714680194737 0.6109015802210527 -0.7015045257526316
H -0.9082905831947369 -1.5502815541789472 -1.6273188421526315
H -0.04449476409473685 -0.2293375395789473 -2.4195412492526316
H 1.8201278542052632 -1.9030155847789474 -1.6091777489526315
H 2.148537338105263 -1.4829311896789474 0.9405158134473686
H 0.9655036323052631 0.1365443375210527 2.9159754981473682
H -0.5570664628947369 1.0474763358210528 2.427519482847368
