17
064704
O -0.1827397073411764 1.5190066509882354 -0.13258624366470587
C -0.09072606144117641 0.12706910898823529 -0.06210707096470587
C 1.0369349060588235 -0.45821350041176473 -0.9092714650647058
C 2.3288041972588234 0.0867354751882353 -0.5006952749647059
C 3.3581169661588235 0.5877021032882352 -0.13252172936470588
C -0.5024338511411764 -0.5425366434117648 1.206547419535294
C -1.4157006311411764 -0.6021061876117647 -0.02888086966470588
C -2.6871765657411766 0.16493968978823528 -0.003472763964705878
O -3.704800449441177 -0.21103402941176472 -0.5318562332647059
H 0.6573844379588236 1.8748444610882353 0.18487383783529412
H 1.0408342623588236 -1.5506861279117645 -0.8243106100647059
H 0.8506112760588236 -0.2164752188117647 -1.962757604164706
H 4.285638772258824 1.0028499482882354 0.17675382763529413
H -0.02436918904117641 -1.4651595401117645 1.5154153938352941
H -0.8295981522411764 0.10385284408823528 2.014019030135294
H -1.4810701035411764 -1.5442388307117647 -0.5628886956647059
H -2.639710107041177 1.1234497966882353 0.5537390518352941
