20
065095
C 1.164873314895 1.0915049350950001 -1.4959210879950002
C 0.858912943995 0.369337127595 -0.19991168619500005
C 1.9300284779949999 -0.40622005920500004 0.4784992526049999
N 1.4335477080949999 0.855988750195 1.065361608405
C -0.5568349514050002 -0.070009749605 -0.06521140989500003
C -1.6845481778050002 0.7213538777949999 0.5237020501049999
C -1.371175580805 -0.665619366805 1.0568307361049998
C -1.798462605505 -1.697560732805 0.020493441604999968
O -1.0597567998050001 -1.011732334005 -1.0291320160950002
H 2.229539028995 1.3362254733949999 -1.5675808624949998
H 0.897837281395 0.466322516895 -2.3534954946949997
H 0.5893782785949999 2.021077921895 -1.5679660436949998
H 1.679223684995 -1.298593005605 1.044043866805
H 2.917867799595 -0.41481641430500005 0.02503651070499996
H 2.091187996695 1.6079227819950002 0.8722112544049999
H -1.3807041759050003 1.5256226906950001 1.1850090948049998
H -2.583685499205 0.898242677195 -0.06092940279500003
H -1.107417119105 -0.8547630039049999 2.087985187505
H -1.3819365084050002 -2.6969857896050002 0.19061685150499996
H -2.8678750973050002 -1.7772982969050002 -0.20964185069500002
