16
065182
O 1.3210158144562498 0.25726659288125 -1.42369758776875
C 0.68611087445625 -0.23912124811875 -0.27764321266875003
C 1.56211140005625 -1.00860266311875 0.66588379593125
C 1.01866731855625 0.34661775278124995 1.06746872443125
C -0.6935575962437499 -0.75003664241875 -0.57286559106875
O -1.6089034906437498 -0.88588622711875 0.5092014618312499
C -1.9038686263437499 0.10224789848125002 -0.47997852906875005
C -1.81313548604375 1.49170162648125 -0.08538190216875002
N -1.75682009374375 2.61538513638125 0.18049509683124998
H 0.98272418995625 1.14526530168125 -1.59007739176875
H 1.14941993545625 -1.88768547901875 1.14844889913125
H 2.60852389665625 -1.07485515231875 0.39259410983125
H 1.70556399695625 1.18482101538125 1.06860665043125
H 0.23881609295624992 0.38104568508125003 1.81833585153125
H -0.7367372123437501 -1.55443647911875 -1.30867442366875
H -2.75993101414375 -0.12372711791875 -1.11271595176875
