18
065466
C -0.11861347310555559 1.4949366017 -1.3401383647
C -0.5724040644055556 0.13507099569999997 -0.8618226913000001
N 0.40684424309444445 -0.9630461846 -0.8294251204
C -0.13196643250555556 -0.4932066604 0.4422130392999999
C 0.8265682443944443 0.1680325183 1.4107652521999998
C 1.6807581507944445 -0.8733701255999999 2.1139977502000002
O 1.8058412870944442 -0.9589419019 3.3075271298999995
C -1.9586196897055554 -0.2675378566 -1.2606138292
O -2.3358039624055555 -1.4156326791 -1.2875755150000001
H 0.8854259277944444 1.7298967088 -0.9853820605000001
H -0.09326088240555558 1.5272217863 -2.4345264348
H -0.8002913259055555 2.2793403542 -0.9936641730000001
H -0.08013470070555562 -1.8167904363 -1.1058789693
H -0.8851847805055556 -1.1238357802 0.9120171002999999
H 1.5105765090944443 0.8275193318 0.8643590413
H 0.2957719950944444 0.7552905011000001 2.1652474563999995
H 2.1998700110944442 -1.5729991969 1.4224719703
H -2.635377056805556 0.5680520237 -1.5395715817000002
