17
067530
C -0.20595273645882356 1.9546091309941176 -0.32685365078235296
C -0.16020924385882354 0.44483183139411764 -0.27086448728235296
C -1.4876763494588234 -0.2832226350058824 0.09537077631764707
O -1.2865215382588235 -1.6974511073058822 -0.006021892182352939
C -0.8367475492588236 -1.0315027565058823 1.1811360031176472
C 0.5409487304411765 -0.39394072850588235 0.8700727667176471
C 1.4204274121411764 -1.1367748425058823 -0.17574233298235295
C 0.7191049969411765 -0.3265700037058824 -1.2889838812823529
O 0.8595152612411765 -0.24701077990588238 -2.473073480882353
H 0.8005574394411765 2.3842971997941174 -0.339804996682353
H -0.7210953920588236 2.2855827833941174 -1.2351374177823529
H -0.7393870170588235 2.3683843303941177 0.5361186176176471
H -2.4998914209588237 0.08530477009411763 -0.03207359258235293
H -1.2208115107588235 -1.3989178625058825 2.1259183485176467
H 1.0355796521411764 0.11063098349411765 1.6981724266176472
H 2.4866807155411763 -0.8995249484058823 -0.10833604308235295
H 1.2954785502411765 -2.2187253652058825 -0.24989716338235296
