20
070124
C 0.8688046674050001 2.169387274405 -0.898411955005
C 0.480787042305 0.781044838705 -0.43384854030500003
C -0.948642862195 0.36752984070499994 -0.823841741405
C -1.224424835595 -1.111954408395 -0.871580021805
C -1.090408011995 -1.9513282139950001 0.16642781229500003
C -0.5951321673950001 -1.591281887295 1.490120609795
C 0.281366726005 -0.6134591591950002 1.7855785592950002
C 1.029218409105 0.27675158500499997 0.870587398995
N 1.576697461005 -0.18776931489500004 -0.436465933605
H 1.871727657605 2.426399993505 -0.549513353605
H 0.8703745791049999 2.221428258205 -1.9932545882050001
H 0.162698639205 2.920074985805 -0.525702344105
H -1.6340685227949998 0.846803245605 -0.10900452170500002
H -1.174388747595 0.803114822305 -1.802958694605
H -1.5832034838950002 -1.5113953110949998 -1.8162090222049998
H -1.396695198495 -2.987489123195 0.03601624109500001
H -0.958422666395 -2.201613575195 2.3139690922950003
H 0.529934246505 -0.4729295424950001 2.834788835095
H 1.722752516805 0.936683298305 1.386652545695
H 1.211024551305 -1.1199976067950002 -0.623350378005
