19
070653
O 0.22138999231052625 2.218190277531579 -0.6733302470578948
C -0.10872071998947373 0.8909995674315787 -0.4169417373578948
C -0.8259532355894738 0.07588758863157874 -1.4609269220578949
C -1.5370515615894735 0.4956393719315788 -0.1825589620578948
C -1.5800238141894738 -0.5057862626684213 0.9617639209421052
C -0.13171021398947372 -1.0377701886684212 1.0766095963421052
C 0.7634019187105263 0.13942349933157883 0.5994488034421052
C 2.066158308710526 -0.25506172626842116 0.07891752794210521
C 3.134081177810526 -0.5643473411684212 -0.3805574066578948
H 1.0236584959105262 2.2198840429315787 -1.2087079784578947
H -1.1086715154894735 0.6197101007315788 -2.3553191539578946
H -0.5639232379894737 -0.9641410472684211 -1.6267595691578949
H -2.3212086487894736 1.2392697238315789 -0.2684290640578948
H -1.8728191348894736 0.010783703131578726 1.8835336641421052
H -2.299176289689474 -1.3164062048684213 0.8035060032421053
H 0.12591290191052626 -1.358965934568421 2.088197839142105
H 0.019286145610526273 -1.8992926588684214 0.4208491850421052
H 0.9157104692105263 0.8369512260315788 1.4343615736421051
H 4.079658962010527 -0.8449677371684212 -0.7736570730578948
