18
071648
C 0.33704527617222224 2.2243987383833335 0.0968998482888889
C 0.2572017039722222 0.7271188978833333 -0.0677265835111111
C 0.5585899564722222 0.03648379028333326 -1.4196749864111111
N -0.5142187704277779 -0.9826526516166668 -1.146843717711111
C -0.13617558952777775 -1.912736392716667 -0.0496433540111111
C 0.4762902817722222 -1.1841203936166669 1.1336596195888888
O 1.0427061908722222 0.08582538378333326 0.9406519817888889
C -1.0120207516277777 -1.1821799811166667 0.9744866823888889
C -1.1122205048277778 -0.08260781551666674 -0.08252502631111111
H 1.3742761593722224 2.563914250183333 0.011227224388888901
H -0.25407287152777774 2.728867138283333 -0.6729369389111111
H -0.03731333632777778 2.523422807883333 1.080644541788889
H 0.2764562382722222 0.6299518866833332 -2.2951792648111113
H 1.5714563721722223 -0.35563419991666667 -1.5424898481111111
H 0.006142490972222248 -2.971422555816667 -0.24065769231111112
H 0.9664208769722222 -1.7566507961166669 1.911304708788889
H -1.7553232137277777 -1.5220671157166668 1.6813408412888888
H -2.045240509027778 0.4300890087833333 -0.3125380362111111
