19
071705
C -0.012239257789473695 2.1308995111368425 -0.3153000832736842
C -0.008882593089473693 0.6335038580368422 -0.3555356414736842
C 0.5872135354105262 -0.31021882976315784 -1.451443177273684
C -0.48276859828947366 -1.306736299063158 -1.063071950273684
C 0.8648527457105263 -1.3021599418631578 -0.3446753440736842
C 0.5549007087105263 -0.29059176746315785 0.7898464387263159
O 1.5797845774105264 0.1684611633368422 1.6089127879263159
C -0.8861891276894738 -0.5837202321631578 1.290128483126316
C -1.2715213674894736 -0.3076941632631578 -0.18271699807368422
H 1.0102438518105263 2.523328132836842 -0.2884367732736842
H -0.5129781316894737 2.5506147995368424 -1.1952978335736844
H -0.5327062580894737 2.501221531336842 0.5749835686263158
H 1.0898736420105262 -0.13540803146315783 -2.393795946373684
H -0.8491293897894737 -2.162111636763158 -1.6162625628736844
H 1.5378639846105262 -2.150760703463158 -0.3326954857736842
H 1.9565075269105263 -0.5820821682631578 2.081311561626316
H -1.1121438273894737 -1.5668535529631578 1.7155789520263158
H -1.2353821715894737 0.2072775898368422 1.961165503426316
H -2.2772998496894736 -0.016969259563157757 -0.4826954991736842
