21
073190
C 0.015100723047619058 2.1013117392714284 0.0057519207619048
C -0.054721798952380954 0.5914796977714284 0.046640886861904804
C -1.4718334641523811 -0.03743500992857163 0.2737095810619048
C -0.952074493652381 -0.7720923282285717 1.5461466673619046
C 0.4838883997476191 -0.2975529829285716 1.2304651641619047
C 1.245327479847619 -1.1748590571285715 0.1985785145619048
C 0.883118534347619 -0.1851196667285716 -0.9495923664380952
C 0.27725038984761907 -0.7358483759285717 -2.209806729338095
O 0.4454194050476191 -0.27687766862857155 -3.3123681124380955
H 1.0501309723476189 2.4565891625714285 0.0588635379619048
H -0.4226403855523809 2.4885507535714284 -0.9223910679380952
H -0.536696728752381 2.5434644323714286 0.8433120029619048
H -2.242834585652381 0.7116236537714284 0.4705945591619048
H -1.841905622152381 -0.6850059915285716 -0.5238798508380952
H -1.3505654146523811 -0.3437665351285716 2.4694797013619048
H -1.100028438252381 -1.8553942067285714 1.5838875371619048
H 1.082327046747619 0.11094274647142843 2.0466276534619046
H 2.318082686047619 -1.2832532577285716 0.36904452376190483
H 0.8212885276476191 -2.1776935070285717 0.0741323151619048
H 1.724538633547619 0.4518993670714284 -1.2347413639380953
H -0.373171866452381 -1.6309629652285718 -2.0644550748380954
