18
073239
O 0.1083579801 1.3592772675 -0.0442045055
C 0.0207627388 -0.0391354356 -0.0513417613
C 0.283831184 -0.7889492708 -1.3841174005
C -0.9630581424 -1.6707339013 -1.0964932168
C -1.374654122 -0.7094939416 0.061178612
C -1.4547817956 -1.328940102 1.4651362286
N -0.0515301049 -1.3989635842 1.8640867672
C 0.7904212498 -0.5956465344 1.1544911623
O 1.9373988586 -0.3041691862 1.4330160245
H 0.9948600288 1.5707100474 0.2817831784
H 0.1285797169 -0.1052305443 -2.2223847528
H 1.2508571404 -1.2842008754 -1.4991236371
H -1.6824320509 -1.7661617062 -1.9113125372
H -0.7117483675 -2.6724829554 -0.7378125508
H -2.2205073941 -0.0640009945 -0.173040018
H -2.0312344003 -0.7043246656 2.160327069
H -1.9106919319 -2.3251108193 1.4473400431
H 0.2409588422 -1.756004388 2.7612708048
