14
074171
N -0.36002960814999996 1.820152353657143 0.4546633132285714
C -0.52250998075 0.4711962561571428 0.4146483349285714
C -1.61312380235 -0.3120362605428572 0.4910776056285714
C -1.20192344435 -1.713155729442857 0.4356685234285714
O -1.84264853625 -2.723753998742857 0.4663122459285714
O 0.19160863094999997 -1.752650434542857 0.3244321862285714
C 0.70763121575 -0.4285862423428572 0.3483914083285714
C 1.55451039685 -0.1415883629428572 -0.8069545323714287
C 2.25552216775 0.14669016585714278 -1.7389719742714287
H 0.47972084425 2.1860654699571427 0.02996326632857138
H -1.17782383525 2.393898633757143 0.3195647675285714
H -2.64847114595 -0.017187636242857185 0.5639004862285714
H 1.2995448915499999 -0.30334292264285717 1.2669444199285713
H 2.87799220595 0.3742987080571428 -2.5696400510714286
