17
074625
C 0.0579600141 2.483485822735294 -0.24058288408823528
C -0.039543743900000004 0.9933153163352941 -0.29424467838823526
C -0.007484503400000002 0.18048419283529415 -1.3662064023882352
C -0.044236364300000004 -1.2340758964647058 -0.9367363931882353
C 0.9132124215 -1.614773172764706 0.29355013811176467
O 1.3915608396999999 -0.46410564646470587 0.9391546978117646
C 0.013694725899999996 0.11184225543529414 0.9262106449117646
C -0.5283847284 -1.300122642764706 0.47849064531176466
O -1.6479858614 -1.9835280100647061 0.8810773989117646
H 0.9807155000000001 2.806158269035294 0.25796872721176467
H 0.0491037634 2.917957403335294 -1.2440253480882353
H -0.7751224817 2.9207918269352944 0.3245363230117647
H 0.12276359170000001 0.4966472471352942 -2.3946484544882356
H -0.26641534 -2.057557685864706 -1.6047797949882352
H 1.5296808293 -2.505178022764706 0.28970700271176475
H -0.23446483050000003 0.5306304352352942 1.9020603053117646
H -1.515053832 -2.281971691864706 1.7884680723117647
