20
075185
C -0.11542012311000001 2.75913480221 -0.028140833205000007
C -0.11275836621 1.25722794221 -0.09639007880500002
C -0.17630538061 0.58682790261 -1.248414182905
C -0.12929912521 -0.9103177681899999 -1.3721041911049998
N 0.11423353309 -1.55355319049 -0.08893709290500001
C -0.48185160071 -0.9363307311900002 1.0808591248950001
C -0.02146300721000001 0.51919418161 1.2212966658950002
C 0.89873505319 -2.6624611719900004 -0.01718220590500001
O 1.42803659059 -3.21259525609 -0.961138849305
H 0.78731202269 3.13195579251 0.47320609869499997
H -0.16042239261000002 3.2099254786099998 -1.022943872505
H -0.96868911521 3.1284343777099997 0.555355407495
H -0.26117966211 1.12723732451 -2.188099432805
H -1.06739481931 -1.2830310127900002 -1.8164379879049999
H 0.67124312239 -1.22902626429 -2.047084843605
H -1.57728730771 -0.96364883989 0.993254109995
H -0.20974282571000002 -1.5259170086899998 1.9611931238950002
H 1.01093413339 0.55258087711 1.5969406942950002
H -0.63627847391 1.02371169971 1.9778791086950003
H 1.00759774429 -3.0193491351899997 1.026889237095
