21
075617
C -1.4765936464142855 0.9525773967809524 -1.6610138266904761
C -0.7229703620142856 -0.25512714031904765 -1.1199585439904762
C 0.7825380384857145 -0.34880455961904766 -1.4344763378904761
O 1.4390741343857143 -0.08000454541904764 -2.400068832490476
C 1.1406498773857146 -0.7354219716190475 0.013466354909523776
C 2.3280218867857143 -0.02794152201904764 0.6528884581095238
C -0.3141788049142855 -0.34346185101904764 0.37105517310952385
C -0.7183328017142855 0.6243728568809525 1.445682400709524
C -1.1386605997142856 -0.8277669460190475 1.5214372007095238
H -0.9990915768142855 1.8870511949809523 -1.3514245540904761
H -1.4897040809142856 0.9293750214809524 -2.7545996005904763
H -2.5140420154142853 0.9674087616809525 -1.310721300790476
H -1.2160578750142856 -1.1840521483190476 -1.4390728141904763
H 1.2710634141857144 -1.8250327129190476 0.07355551260952378
H 2.213767856485714 1.0590329439809525 0.6026154798095238
H 2.4438727570857144 -0.31034877091904767 1.7045768371095238
H 3.2509624325857143 -0.2923578539190476 0.12857443940952376
H 0.04162257608571451 0.9722665193809524 2.1378348468095236
H -1.4778822901142856 1.3638929965809523 1.2136671390095237
H -2.1822910669142854 -1.0668918295190475 1.3405937662095238
H -0.6617678535142855 -1.4587658401190475 2.2653882022095235
