16
075697
C 0.13714213084375 2.13649010905625 -0.02448456589999999
N 0.13989071134374997 0.69295228655625 0.0761930868
C -1.02138794825625 -0.09007547064374999 0.13013531900000003
N -2.23376598625625 0.27538383855625 0.20401045810000001
C -0.56964041715625 -1.5182451560437502 0.11500029120000001
N 0.20019765804374998 -1.8293098920437498 -1.1135128265
C 0.91134019904375 -1.4992788481437502 0.147753873
C 1.32100867054375 -0.04726245244375005 0.1606363151
O 2.43137250934375 0.41832980185625 0.2426921616
H 1.17759770124375 2.46211429775625 -0.0514012658
H -0.37372640365625 2.46176377565625 -0.9366779705
H -0.35728544045625 2.58993179725625 0.8416227302
H -2.32862363915625 1.29206377485625 0.2043899617
H -1.18469491155625 -2.27187455534375 0.5878458908
H 0.21741516064375 -2.84173805014375 -1.2300342183000001
H 1.53316000544375 -2.23124525674375 0.6458307595
