19
076634
O 1.9566863245210526 0.9775743390157894 -0.37778223866315785
C 1.6881283236210527 -0.3791025170842106 -0.21979902846315788
C 1.1485575196210527 -0.8526592523842106 1.1043914622368423
O 0.7824363298210527 0.17704105271578943 1.9996225613368421
C 0.26999276152105267 -0.9386476077842106 -0.12522630316315786
C -0.9944691414789475 -0.12161520288421059 -0.19210043726315787
O -1.8451912425789472 -0.30345001938421057 0.9126092468368421
C -1.0590949676789474 1.2226139012157895 -0.8880782287631579
C -1.7293409137789475 0.006497814715789418 -1.4915349658631578
H 1.4689586414210527 1.4359736692157894 0.31954146483684215
H 2.4269779797210527 -0.9792221324842106 -0.7405396430631579
H 1.5043630718210528 -1.7634758014842107 1.5802608811368422
H 1.5436205170210526 0.3832619497157894 2.553184810936842
H 0.16252909712105268 -1.9505877764842106 -0.5092634956631579
H -1.354671333778947 0.006261390615789425 1.6844397091368422
H -1.7029379462789473 1.9630415728157895 -0.4265118988631579
H -0.1692247065789474 1.6067230891157893 -1.3694647660631578
H -1.2875195268789474 -0.43343132508421056 -2.379073142463158
H -2.809800787178948 -0.05679714408421058 -1.434675988163158
