25
078236
C -1.925637270688 1.713784471504 -0.6714455697999999
C -1.797305965288 0.20477194820399996 -0.6406708103
C -0.5597181513879999 -0.581894470796 -1.011483363
C -1.070454207888 -0.596256438496 0.41669411860000016
C -0.045768499187999856 0.08010537170399998 1.325383157
C 0.5776632729119999 -0.934680483596 2.2943384593000005
C 1.006600275012 0.7155218786040001 0.36723965300000017
C 0.8044531812120002 0.10411985270399998 -1.0521206999
C 1.9074189942120001 -0.897086650596 -1.4241221821999999
H -1.0225168864879999 2.231011475504 -0.3432466475999999
H -2.150563277388 2.061134048404 -1.6863358532
H -2.745338863588 2.044472972204 -0.023387134199999937
H -2.7118058897879997 -0.284019111596 -0.9725990453
H -0.6936308336879999 -1.441529456896 -1.661681631
H -1.580861172888 -1.466475583596 0.8190271565
H -0.5186020710879999 0.867216824804 1.9267521966
H 1.0589862786120001 -1.756195351696 1.7515322345000002
H 1.337129567012 -0.46093425219600004 2.9252571261
H -0.17973385888799998 -1.371778803796 2.9541602864000005
H 0.8960391038119999 1.802639190104 0.3386803998000001
H 2.023297644612 0.526844125104 0.728920657
H 0.8150498307120002 0.904897567204 -1.8027222125
H 1.9406702747120002 -1.731309372196 -0.7140770689999999
H 1.7429383212120002 -1.317363245796 -2.4223117263000002
H 2.8916902042120003 -0.41699650479600003 -1.4217815004999999
