19
078315
C -0.3637688349842106 2.281453461931579 -0.17597605387368426
C -0.31945363728421056 0.776635536231579 -0.10715825177368427
O -1.6351841757842105 0.16999637813157897 -0.11457324487368427
C -1.3364364680842105 -0.596298559768421 1.0809863530263157
C 0.1064085955157894 -0.04064544346842103 1.1243706348263158
C 1.2368248637157895 -0.7024118063684209 0.30587071642631575
C 0.8080137745157894 -1.3768325058684212 -0.9633943095736843
O -0.3345247448842106 -2.161413582968421 -1.1497029489736843
C 0.7867294342157893 0.10915113353157901 -0.9672020355736843
H 0.6373131308157894 2.708337785231579 -0.055394888973684275
H -0.7543958974842107 2.600407666531579 -1.1492628595736842
H -1.0174021924842105 2.684243416331579 0.6027244309263158
H -1.9591054526842107 -0.265535311268421 1.9218396446263157
H -1.4615572716842107 -1.6687945026684212 0.9235986027263159
H 0.4365488288157894 0.447363796431579 2.040716866526316
H 2.2392808637157895 -0.8401571970684211 0.6965625640263158
H 1.6732446914157895 -1.7494771271684213 -1.5184132275736841
H -0.13266486068421057 -3.043536672568421 -0.8193631036736844
H 1.3901293533157895 0.6675135348315789 -1.6762288886736842
