18
081184
O -0.0390721124 1.473242271 -0.0410574753
C -0.0074485492 0.068831042 0.0021236787
C -0.0741161253 -0.6730479985 1.376244832
C -1.5282081068 -0.138414787 1.5371687653
C -1.3935786168 -0.6252476082 0.0579554044
C -0.6686293888 -1.8771201703 0.5871857936
O -2.3725592337 -0.6829265651 -0.9296606172
C -2.8355943771 0.5031259591 -1.3991245085
N -3.753149419 0.5053763266 -2.2648801075
H 0.858762698 1.8056235837 0.0528508647
H 0.7002689261 -0.3462303083 -0.726708834
H 0.6992520601 -0.7104916508 2.1390318543
H -2.1913446833 -0.7277829515 2.1736454589
H -1.6378423963 0.9329537012 1.6978965318
H -0.0071638475 -2.3961321184 -0.1113602531
H -1.2800734115 -2.5715010175 1.1647913539
H -2.3327801676 1.3730625596 -0.9655349373
H -3.981926669 1.4651556625 -2.5168123248
