21
081349
C -1.283987144709524 1.8094860183095238 -0.025113081700000026
C -1.071324770409524 0.2965315769095238 -0.034184247700000024
C -0.14812096100952388 -0.2544823888904762 -1.1416600034000002
C 0.03456250189047605 -1.7314435423904764 -0.6794470684
C 0.8086672867904761 -1.0598873625904763 0.4912596579
C 1.2701076622904761 5.71633095238222e-05 -0.5620834457
O 2.267389998090476 -0.4336380456904762 -1.4645164512000002
C -0.2970511734095239 -0.28932018679047616 1.2192964836
O 0.2992801104904761 0.6814659087095238 2.0669637184
H -0.3448877892095239 2.360711910109524 0.06321152779999997
H -1.7797205333095238 2.128614017409524 -0.9477457679
H -1.928031517509524 2.117559519609524 0.8073996764
H -2.051724400309524 -0.1879082705904762 -0.11213198110000003
H -0.38211120340952387 0.008433029409523785 -2.1741477036
H -0.8656290745095239 -2.305532369490476 -0.4391944756
H 0.6927692959904761 -2.298854748190476 -1.3341222196000002
H 1.5209043799904762 -1.5996636326904763 1.1172284518
H 1.495837662390476 1.0003929597095238 -0.1788975771
H 3.103532731890476 -0.45379340669047624 -0.9886740048999999
H -0.9383698497095239 -0.9591266757904762 1.8089594084999998
H -0.4020932123095239 1.1703985263095238 2.5075991035
