17
083193
O 1.6569839877411765 1.119325306782353 -0.8535736430941177
C 1.3541035964411765 -0.24312371811764705 -0.8473264891941177
C 0.7988029074411764 -0.8149732172176472 0.42773934430588234
C 0.37046361294117647 0.11647063358235293 1.5407227190058825
O -1.0575907052588234 0.07453413818235294 1.7618006183058825
C -1.8826836593588234 0.22829959868235294 0.6987773547058824
O -3.070798838158823 0.2841811383823529 0.8663926363058823
C -1.2071124294588234 0.30970344888235296 -0.6651210684941177
C -0.0834817523588236 -0.706629902717647 -0.8062658926941176
H 1.5584666441411765 1.447025935682353 -1.7541949022941177
H 2.059355174441176 -0.8686032987176471 -1.3925377068941178
H 1.1459320236411765 -1.796911709517647 0.7283342845058822
H 0.8037428204411765 -0.17454035221764705 2.4983988797058823
H 0.6714115052411764 1.145548807482353 1.3269439070058824
H -1.9833631302588237 0.17699267518235295 -1.4186514721941177
H -0.8043708296588237 1.3243393637823528 -0.7775698351941177
H -0.3298609279588236 -1.6216388481176471 -1.3338687337941177
