21
083129
C -1.3709257236333334 1.5404564271761905 -0.5973722705761905
C -1.0906969370333335 0.05180339747619046 -0.5788815032761905
C 0.19435938596666635 -0.6037895071238095 -0.9886046723761904
C 1.4604297972666667 0.25490197267619047 -1.0705783347761906
C 1.6831020751666663 0.8431445122761905 0.33985659592380957
C 0.6992347296666666 0.12097680987619046 1.2719337634238097
O 0.7422110057666664 0.14770088547619048 2.4788037031238095
C -0.2613678152333335 -0.7033458872238095 0.46513895912380965
C -0.8265810896333335 -1.9342214554238095 1.1323151481238094
H -0.48920289983333354 2.152243212976191 -0.39875952377619045
H -1.7575768249333334 1.8373756247761903 -1.5787090295761903
H -2.1286235974333336 1.8021051659761904 0.14870996782380952
H -1.9701205810333335 -0.5301359337238095 -0.8495418797761904
H 0.1376398827666665 -1.4769590177238097 -1.6306184051761905
H 2.3049936584666666 -0.3802096749238095 -1.3533508998761905
H 1.3787823170666667 1.0303158073761904 -1.8393979105761904
H 2.6965158592666665 0.6762037529761905 0.7151046695238096
H 1.5126585657666662 1.9230864523761904 0.3997506168238095
H -1.3733044504333336 -1.6578141602238097 2.03897061792381
H -1.5102307477333334 -2.4678764818238093 0.4654525232238095
H -0.03129661023333363 -2.6259619032238093 1.4297778647238095
