21
084121
C -1.9079829362809524 1.5596639128238095 -0.09710998805238098
C -1.3385028602809523 0.1345438283238095 -0.05547702225238098
C -0.38254705378095233 -0.18941274277619047 -1.187211057952381
C 0.7354465107190478 -0.8117022577761905 -0.802684318952381
C 1.8850360673190476 -1.2616711730761905 -1.646227303952381
C 0.7455678362190477 -0.9991472781761905 0.696800109147619
O 1.6512180828190477 -0.09050741637619049 1.3785433362476192
C 0.5509696421190478 0.7771039577238095 1.7335022294476192
C -0.4983375595809524 -0.22602961467619048 1.191848312147619
H -1.1162543494809523 2.3146913695238096 -0.10039278765238098
H -2.5062134449809523 1.7076273000238096 -1.002286571752381
H -2.5572382494809522 1.7510077585238095 0.763861804547619
H -2.1976623796809522 -0.5518403954761906 -0.10289992835238099
H -0.6153071540809524 0.06832568712380951 -2.217251108552381
H 1.7477585062190477 -0.9976531421761905 -2.698262698352381
H 2.8171995899190474 -0.8051468049761905 -1.2928964033523809
H 2.0231876289190476 -2.3486965548761907 -1.581654846352381
H 0.9222306870190478 -2.0338039270761907 1.0165361914476192
H 0.5209453659190477 0.9638223209238095 2.8129380755476188
H 0.6036104287190476 1.7389805128238094 1.2095067164476192
H -1.0831243582809522 -0.7001553403761905 1.9808172605476193
