21
086437
C -0.4047824679952381 2.514312561914286 0.3961306990857142
C -0.6591398705952382 0.9951472925142858 0.3052864732857142
C -0.07872411319523809 0.4489619082142858 -1.005520185414286
C -0.27064507479523814 -1.0597349224857142 -1.2124286848142858
O -0.1979048974952381 -1.2898389316857142 -2.6181576706142855
C 0.7545718974047618 -1.880959025685714 -0.4715742492142858
C 1.0904484767047617 -1.7305545342857143 0.8148983980857142
C 0.545977104004762 -0.7736910727857143 1.7754596287857143
C -0.19193030129523814 0.33001550721428585 1.5762239913857141
H 0.6684933471047619 2.727006089614286 0.4448478358857142
H -0.8139998718952381 3.030506704214286 -0.4778409215142858
H -0.8717147956952381 2.940586383914286 1.289630984385714
H -1.752969393195238 0.8653110488142858 0.2675875777857142
H -0.5720144126952381 0.9553123035142858 -1.8415709199142856
H 0.9887556749047618 0.6854889713142858 -1.0731703110142856
H -1.2767412228952382 -1.3292905365857142 -0.8429402724142859
H -0.3277164207952381 -2.2311408570857143 -2.7714851727142857
H 1.258435472004762 -2.642047232085714 -1.0637692145142856
H 1.834662363104762 -2.4108864513857142 1.2227293499857141
H 0.7786233744047618 -1.0101860605857143 2.812238255585714
H -0.5016848670952381 0.8656808534142858 2.473424407885714
