23
087394
C -0.2878635135565218 1.7359630892521738 -1.5722855730304348
C -0.18727778395652178 0.23637478755217392 -1.3918271352304348
C 1.1504327806434782 -0.4598657585478261 -1.5150420738304349
C 0.44585789804347825 -0.4130322061478261 -0.19235957203043474
C 0.9430061451434784 0.15117570705217392 1.1456765980695653
C 0.39236997444347826 1.4532191391521738 1.6993184842695652
O 0.3852364808434782 -0.993702953247826 1.8405625656695652
C -0.06829809855652177 -1.6108708182478262 0.6106170761695651
C -1.5556262740565217 -1.909097739247826 0.6288609321695651
H 0.5969173977434783 2.2469727980521736 -1.1813169183304348
H -0.36989211915652176 1.9884385062521739 -2.635294441730435
H -1.1641761926565217 2.1507545836521738 -1.063070699830435
H -1.0337610446565217 -0.31157203794782606 -1.8018871855304348
H 1.2067943591434782 -1.411498673147826 -2.0355103973304347
H 2.0289133341434784 0.16786319685217393 -1.640353654530435
H 2.0405386088434785 0.14769984815217393 1.2256668380695652
H -0.6912605059565218 1.5133329972521739 1.565933547869565
H 0.6094163824434782 1.5065403108521738 2.771179499669565
H 0.8560378578434782 2.3196002845521737 1.217292162869565
H 0.4971852888434782 -2.534787312547826 0.4156445910695652
H -2.136789948156522 -0.995566023747826 0.7840879879695652
H -1.8707723095565216 -2.369392815347826 -0.31442447973043486
H -1.7869887178565218 -2.6085489104478263 1.438531847269565
