19
087909
O 1.2555950549263157 2.194298998873684 -0.03539938850526317
C 1.4195913520263157 0.8065793088736843 0.04034167509473682
C 1.2497461856263157 0.09847117927368432 1.357240350094737
C 0.17712805642631557 -0.0020022353263157155 0.29312481879473684
C -1.1763305815736842 0.6994383043736843 0.4602378317947368
C -2.117429475173684 -0.19024791212631564 -0.31121014590526314
C -1.5210604899736844 -1.274970954126316 -0.8023670219052632
C -0.04496866367368435 -1.3176129612263159 -0.4901047440052632
O 0.7692171470263157 -1.4711489196263159 -1.651589155605263
H 2.0226543285263157 2.6066778665736843 0.3746820225947368
H 2.134001235226316 0.3857776115736843 -0.6651109117052632
H 1.8658269287263156 -0.7737848128263156 1.5558077299947368
H 1.0277835079263156 0.7122401826736843 2.225346421994737
H -1.4748027385736842 0.7687982322736843 1.514808634394737
H -1.1597428625736843 1.7268607172736843 0.07898188769473684
H -3.1703649806736838 0.047154339373684295 -0.4229074176052631
H -1.9950525985736844 -2.0595413391263158 -1.3814810737052632
H 0.21644646192631578 -2.189542065526316 0.12248409609473683
H 0.5217621324263158 -0.7674455412263157 -2.262885609605263
