21
089246
C -0.08900161221428568 2.2794717047999997 -0.1939900397333334
C -0.056566358914285686 0.767695017 -0.2192036259333334
C -1.4191586965142857 0.004432600499999939 -0.2695525846333334
C -1.0280808026142858 -0.7536892515 1.0482951907666667
O -0.9928983600142857 -2.1646046518 1.0418629957666667
C 0.36298759528571434 -0.06376908050000007 1.0361673739666666
C 1.5378423825857144 -0.6663879648 0.23892248186666662
C 1.1206499846857143 -1.3476290482 -1.0320395255333334
C 1.1362863653857143 0.152995636 -0.9997545910333334
H 0.8943375477857143 2.6901072635 0.06261516576666662
H -0.3707531898142857 2.6847488664999997 -1.1741148434333333
H -0.8116004789142857 2.6529006848 0.5402243080666665
H -2.295255658214286 0.6510040470999999 -0.1630894807333334
H -1.5662620929142856 -0.6405589667 -1.1391151497333334
H -1.6258866469142856 -0.38961062690000015 1.8961472068666665
H -1.9005123514142857 -2.4850566299 1.0486456067666667
H 0.6660474672857143 0.43564352519999994 1.9578891175666668
H 2.523033654485714 -0.8248256427 0.6608617512666666
H 1.9443691008857142 -1.7858628743000002 -1.5885405671333332
H 0.2052375669857143 -1.923982616 -1.0798849561333335
H 1.7651845830857142 0.7269780079 -1.6723458346333333
