21
090178
O -0.4261328041714286 2.5955617433714284 0.455290578261905
C 0.23755837212857142 1.7156777943714283 -0.4539037843380951
C 1.2671463017285713 0.7823568891714283 0.2645172397619049
C 0.47964349552857144 -0.4592546221285716 0.6216813489619049
C -0.8546716178714286 -0.3215332851285717 1.304010976061905
C -0.8143953212714286 -0.46369558202857175 -0.1930330551380951
C -0.5772906068714285 -1.9308742336285718 -0.599558479338095
C 0.7503585471285714 -1.9267609464285718 0.23666355396190497
C -0.8477716198714285 0.7778575806714283 -1.059467225638095
H 0.24448331272857143 3.1357366662714283 0.8853625904619049
H 0.7292090066285715 2.310474770571428 -1.2372789497380952
H 2.0722536886285714 0.5212049232714283 -0.4337374792380951
H 1.7346391931285714 1.3059238355714284 1.1084952697619048
H -1.2277638219714286 -1.1480418447285716 1.904349183561905
H -1.1007130047714286 0.6638466240714284 1.6795429056619051
H -1.3508136431714286 -2.6468374551285714 -0.3021596710380951
H -0.3933656858714286 -2.0515821840285717 -1.670392794538095
H 1.6372824480285715 -2.0453021433285716 -0.39140198413809507
H 0.8195989240285715 -2.6399515593285714 1.0649842070619049
H -1.8050195440714285 1.3072569343714284 -1.095318074138095
H -0.5742356197714286 0.5179360941714284 -2.088646356238095
