18
090532
C -0.9114820168666666 2.196567700338889 -1.0758369953555555
C -1.2729704152666668 0.7465318707388889 -0.8600730244555556
O -0.46093509646666664 -0.18015841726111104 -1.6532144071555557
C -0.18302635006666668 -0.9983128133611111 -0.5128166211555556
C 1.1760058624333334 -0.6532103628611111 0.1775613404444445
N 0.48487705003333326 0.453313424338889 0.9294982828444445
C -0.8463925027666667 0.01916709033888897 0.43822337004444445
C 1.7128164170333335 -1.711586711661111 1.0121466577444445
C 2.125017246033333 -2.590341980561111 1.7231270219444443
H 0.10973426893333338 2.388892860038889 -0.7407038217555556
H -0.9988004268666667 2.450363761838889 -2.1367917774555556
H -1.5941421746666666 2.843824034538889 -0.5141320035555557
H -2.3343053194666665 0.567313673138889 -1.0839744537555556
H -0.4354096476666667 -2.051030622961111 -0.6502948680555556
H 1.9330200874333332 -0.27801150126111107 -0.5194203620555555
H 0.5942682336333334 0.35949114243888897 1.9321897884444446
H -1.6036472009666667 -0.19828041956111098 1.1917531004444446
H 2.5053719855333334 -3.364532728261111 2.3427587728444443
