19
091484
C -0.9068385905789474 1.8133270880526315 -0.3978426977526314
C -0.7015948019789475 0.3013836265526315 -0.4317208972526314
C 0.27084749532105257 -0.19543652124736843 -1.5569575377526315
C 1.3204599774210524 -0.8648060212473684 -0.6495604729526314
C 0.4762537794210526 -1.6970868947473683 0.33757054324736857
C 0.12864192892105253 -0.24060210394736847 0.7640981198473686
O 1.4959685116210524 0.13517952895263152 0.4092300032473686
C -0.2641667572789475 0.06253615035263155 2.1775020462473687
O -1.4082990206789474 0.15256254645263154 2.5469667964473683
H 0.05369975152105255 2.3244512441526317 -0.2784869468526314
H -1.3625897047789475 2.1633411322526315 -1.3295006035526313
H -1.5625830082789474 2.1041389122526315 0.4280576980473686
H -1.6688118377789474 -0.20638965974736845 -0.47701626355263144
H -0.1905565961789475 -0.8923420784473685 -2.2615883440526314
H 0.7042854249210526 0.6349990425526315 -2.1194220771526315
H 2.255901879821052 -1.2190984254473687 -1.0819111000526314
H -0.3262444655789475 -2.336540971947368 -0.036656667452631464
H 1.0906113200210525 -2.2061306197473685 1.0810250623473685
H 0.5950147141210524 0.1665140249526315 2.8762133389473687
