21
092198
O 1.2749140849666667 2.4020540826238093 -0.4114359675761905
C 1.3446764972666667 1.0004876069238093 -0.5039108470761905
C 1.6599092954666668 0.1383271531238094 0.7874090826238096
C 0.6072971290666668 -0.8768600622761905 0.2449929996238095
C -0.6761672452333334 -1.5404247432761906 0.8151396275238096
C -1.7108445739333333 -0.6576303613761906 0.05043875252380958
C -1.1651677941333334 0.7508894929238095 0.39786334962380954
C -0.011798334433333224 0.29132738452380946 -0.5365815120761904
C -1.1005569392333332 -0.40531002157619056 -1.3886203517761904
H 2.171134850866667 2.7489020804238096 -0.3603458263761905
H 1.9954172388666667 0.6812592435238094 -1.3318302830761906
H 2.6842943376666666 -0.21851276547619058 0.9196933556238096
H 1.3405074492666667 0.6708207420238095 1.6857007352238096
H 1.1210512241666668 -1.5653011831761905 -0.4346146982761905
H -0.7360810496333332 -2.6040656433761904 0.5669146274238095
H -0.8036884623333334 -1.4417645367761907 1.8978070439238097
H -2.7670550529333333 -0.9056785026761905 0.16553220432380955
H -1.7417070240333332 1.5640556127238094 -0.04825692307619045
H -0.9516307983333332 0.9753871375238095 1.4458765330238095
H -0.7932016406333331 -1.2672780811761903 -1.9884558275761905
H -1.7413031927333333 0.25931536482380946 -1.9733160745761904
