23
093099
C -0.8196912472347825 2.109226748256522 -0.40828270611304346
C -0.7487300059347826 0.5793144648565218 -0.3605304686130435
C -0.1565569548347825 -6.616774347811827e-05 -1.6581930280130435
C 0.1220253376652175 -1.4757097774434782 -1.5774219702130434
C 0.11866318806521747 -2.1540327911434782 -0.4313005706130435
C -0.15827836203478252 -1.5101322156434782 0.9018434763869565
C -0.012180004734782535 0.027199125256521794 0.8835011605869565
C 1.4681438149652173 0.43171491155652186 0.9392547811869565
O -0.7015304421347826 0.5815813543565218 2.0105107730869567
H 0.16642736296521743 2.556897892856522 -0.5732412890130435
H -1.4638284157347825 2.4329559447565217 -1.2329155696130434
H -1.2253345277347825 2.508836681756522 0.5229103802869566
H -1.7770110196347826 0.20408260585652183 -0.2695750721130435
H -0.8467162285347826 0.20241309415652187 -2.4879509934130435
H 0.7677055571652174 0.5371740574565218 -1.9225326580130435
H 0.3381244874652174 -1.9901151496434784 -2.511030037113043
H 0.3154613182652175 -3.223550396343478 -0.4321167275130435
H -1.1794272494347826 -1.745379817043478 1.2320790069869565
H 0.5079045037652175 -1.933338595743478 1.6672775417869563
H 2.037459157965217 0.001854871456521856 0.11047741768695651
H 1.5815311164652173 1.518123970756522 0.9215291004869566
H 1.9191973924652175 0.06297107875652186 1.8686823800869565
H -0.25335877923478256 0.27797810865652184 2.8070250717869567
