18
093539
C 0.13168758650000006 2.3221743945722224 0.3606627170444445
C -0.4624627255999999 0.9165321021722221 0.1977372771444445
C 0.1424948384000001 0.18474639717222208 -1.0054668972555554
C -0.3449161203999999 -1.269071551227778 -1.1201521915555555
C 0.48358877580000004 -2.209241762827778 -0.28199161345555546
O 1.0665631693000002 -3.166375101227778 -0.6988267024555554
O 0.5871268155000001 -1.940585940627778 1.0676381225444445
C 0.02765085010000007 -0.8916518258277779 1.7828912399444445
N -0.3933624538999999 0.2490119796722221 1.4856623251444443
H 1.2044580035 2.263268571572222 0.5714817907444445
H -0.007448140399999914 2.908275361572222 -0.5528037488555555
H -0.3491711503999999 2.842788882172222 1.1915921581444446
H -1.5386917685000001 1.035972879272222 0.0010291561444444874
H -0.1381485551999999 0.729149797072222 -1.9129710008555554
H 1.2380989443 0.21096305697222206 -0.9568182870555554
H -1.3957327476999999 -1.3376765207277779 -0.8107689504555554
H -0.27413010419999995 -1.639470016727778 -2.1436814757555553
H 0.022394782900000076 -1.208810703027778 2.8247860808444445
