20
093754
C -1.328809523595 1.935045210905 -0.585107728095
C -1.0055005949949998 0.43769313930500003 -0.580721191695
C -0.06989026229499984 0.009673914605000056 -1.745037353995
N 0.8082508426050001 -0.9982422393949999 -1.1338101793950002
C 0.7789568117050001 -0.8725048691949999 0.232620428805
C 1.7817025989050002 -1.6356430586949997 1.0377924197050001
C -0.24463908169499993 -0.06686677939499996 0.641537456805
C -0.6516196425949998 0.16296382070500004 2.000990152005
O -1.624449721795 0.817053025305 2.346329532205
H -0.41203878859499987 2.530571249005 -0.510359061795
H -1.843634978795 2.219192453905 -1.509816040595
H -1.966118732595 2.181526050205 0.265032004905
H -1.953021528595 -0.11404789649499997 -0.655312581095
H -0.6073936638949999 -0.40751432949499994 -2.600892617395
H 0.517846743405 0.869673642805 -2.098286077595
H 1.675646030905 -1.241149393695 -1.588574285095
H 1.7056399209050002 -2.707135708395 0.822068333605
H 2.8009390381050006 -1.3235070521949999 0.7792719810050001
H 1.6423838097050003 -1.486898108795 2.1078409421049997
H -0.004249276794999979 -0.30988307099499995 2.774433865605
