19
093865
C -0.8697705434368419 1.8187546320947368 -0.8284464113368422
C -1.1100013990368418 0.3774127639947369 -0.38443555953684216
O -0.9012338193368419 -0.529928606105263 -1.4791303723368423
C 0.37637587186315824 -1.1289596909052633 -1.3323708072368423
C 0.5341711701631582 -1.3529978543052632 0.1781750500631578
O 1.8722567637631582 -1.4156962197052632 0.6318916572631579
C -0.18855982333684185 -0.1285069115052631 0.7342545256631579
C 0.38416137226315805 0.6939625108947369 1.8034713293631577
O -0.7035059621368418 -0.20628425310526316 2.060103872663158
H 0.17695994816315808 1.9817617946947368 -1.1038684927368423
H -1.4951112105368418 2.043022742594737 -1.6968181422368422
H -1.1283948168368418 2.522198156794737 -0.030711034036842166
H -2.152113718236842 0.2588899858947369 -0.06725358783684215
H 0.3866587567631581 -2.048349272805263 -1.924265046636842
H 1.1908021784631582 -0.4753676891052631 -1.6842552132368422
H -0.030922740836841878 -2.243540190105263 0.4869339962631578
H 2.181459996963158 -2.321072976005263 0.5383066867631578
H 1.3398414511631582 0.4025782570947369 2.231199850063158
H 0.1369265241631581 1.7521228195947367 1.8672176990631577
