20
095247
C -1.21613996459 2.4954096255050002 0.055705008405000006
C -0.78829693829 1.039138819205 0.03293529370500001
O -0.07860370479000012 0.832093901805 -1.163779492495
C 0.003808094509999971 -0.495077400095 -1.6267258064949999
C 0.8235731612099999 -1.451354668095 -0.779835149795
N 2.0060895362099997 -0.9403401751949998 -0.07443815239499998
C 0.87485230661 -1.4595123387949998 0.705194483505
C 0.1158118858099999 -0.512903817095 1.617058635705
O 0.002161667409999901 0.8192390811050001 1.175501533105
H -0.32633786179 3.1293063341050003 0.02847631080500001
H -1.83755711409 2.719570849205 -0.8139813809950001
H -1.77604725069 2.709781541305 0.968562426405
H -1.66259076959 0.3602808363050001 0.05938953520500001
H -1.00528476239 -0.9264367178950002 -1.7526407261949999
H 0.45510697421 -0.42805166669500005 -2.623066045795
H 0.90387613561 -2.430550180295 -1.255928815895
H 2.76572074761 -1.614094868995 -0.10437348539499999
H 0.9874307437099998 -2.443843043795 1.163841536105
H -0.8823547638900001 -0.9460072716950001 1.8075302130050002
H 0.63478187721 -0.45664883989499994 2.5805740795050003
