19
095324
O 0.7437488591842105 2.268343141726316 -1.0157603903947368
C 0.7880580933842105 0.8570319807263158 -0.9274751497947368
C 1.5100036137842106 0.3901240274263158 0.34899625000526324
O 0.6903452809842106 0.5614094211263159 1.507461963105263
C -0.6330630940157894 0.11174534852631579 1.3181582184052634
C -0.7243918515157896 -1.356256640873684 0.8484683470052632
C -0.7196285135157895 -1.2296138204736842 -0.6983869609947368
C -0.6454263020157894 0.2957408046263158 -0.9118128977947368
O -1.2593492730157894 0.8421457115263158 0.2737131947052631
H 0.12920126898421047 2.552164517026316 -0.3262186695947368
H 1.3383090445842105 0.5043018780263158 -1.8069506393947368
H 1.8236352120842105 -0.6601830020736842 0.2506882623052633
H 2.4016212310842104 0.9996974876263158 0.5103514783052632
H -1.1582284982157893 0.3294643082263158 2.2489633040052635
H 0.09855168728421049 -1.954102908773684 1.245125103905263
H -1.6586255670157897 -1.7934007617736842 1.2067989292052632
H 0.11995055468421056 -1.7518105812736842 -1.1653012435947367
H -1.6388004680157895 -1.6280472845736842 -1.1328403723947367
H -1.2059112787157895 0.6612463732263159 -1.773978726994737
