23
095588
C -1.8522531352043479 1.8444068259304347 0.3179740306043478
C -1.329846943304348 0.39283352383043474 0.32977260210434783
C -0.796876279404348 -0.004256472469565231 -1.0615469612956523
C -0.25314155320434795 -1.4429392679695652 -1.1912404389956524
C 1.2235571331956518 -1.683017136569565 -0.9900817561956522
C 2.135082299595652 -0.9588051371695652 -0.34071681299565215
C 1.906580431795652 0.32520260033043474 0.4398001550043478
C 0.9190315093956518 0.16657322783043477 1.577270412604348
C -0.41168356300434794 0.18182337663043474 1.513676859404348
H -1.0351657798043479 2.547996212530435 0.12528564030434783
H -2.612368600904348 1.983724567530435 -0.4585486624956522
H -2.2993383549043482 2.1124080009304347 1.2804353249043476
H -2.201688536904348 -0.25345806036956525 0.5132734321043478
H -1.642548799704348 0.09764288303043472 -1.752537475595652
H -0.05053761270434798 0.7119080040304347 -1.4176989243956521
H -0.817162723704348 -2.1064267958695653 -0.5174423423956521
H -0.492382498204348 -1.8061207459695652 -2.199125845895652
H 1.577479609095652 -2.598938249969565 -1.462275784495652
H 3.156997957095652 -1.331259191769565 -0.3385618155956521
H 2.8641249966956517 0.6517108738304347 0.8563127048043478
H 1.590514563195652 1.1306499471304348 -0.23000106309565216
H 1.3685724123956522 -0.012764929569565264 2.551955826504348
H -0.9469465315043479 0.05110594413043473 2.454020895104348
