18
095860
C -0.3975036999666666 2.5020439468111113 -0.05842106504999999
C -0.39902554076666663 0.9919629429111112 -0.11248379804999999
O 0.3192768908333333 0.5772797221111112 -1.2448717809499998
C 0.36479982453333337 -0.8396150455888888 -1.35224576015
C 1.0223051923333333 -1.4367329397888886 -0.10741723584999999
C 0.31250710653333336 -0.8911617843888889 1.1471591733500002
O 0.20522364513333335 0.5191722216111112 1.0903060659500001
C -1.0152213732666666 -1.525989257188889 1.3349113080500001
N -2.0461403663666666 -2.0273733264888887 1.4812097367500001
H 0.6312478601333333 2.8649245085111112 0.0027645695500000123
H -0.8645072561666667 2.9027690331111113 -0.96057159005
H -0.9516093693666666 2.844723685111111 0.81785790095
H -1.4256937987666667 0.5867715691111112 -0.16418319695
H -0.6525630873666666 -1.243050749388889 -1.47907379765
H 0.9378542201333333 -1.0685229724888887 -2.25353067485
H 0.9893014147333334 -2.530069513788889 -0.12542186675
H 2.0674045291333334 -1.1177251834888886 -0.05875454474999999
H 0.9023438085333333 -1.1094068566888886 2.0427665564499997
