22
097200
C 2.233061701940909 2.1667916018272724 0.6443068078363636
N 2.230189826240909 0.7143981139272726 0.6141157167363637
C 1.1466088127409089 0.08663870912727267 0.44052519053636363
C 1.113827513340909 -1.4242346191727275 0.46219115343636363
C 0.11776441064090903 -2.0114601187727272 -0.5456401086636362
C -1.236816944759091 -1.3200584158727273 -0.37594139076363636
C -1.077635290559091 0.1888819958272726 -0.5423330865636362
C -2.345523188959091 0.9757882801272726 -0.2520298465636363
O -0.06500757285909087 0.7229634462272726 0.3390766852363637
H 3.1191598092409087 2.5282867563272724 0.11213232493636366
H 1.337483394840909 2.6279789828272726 0.21344803863636364
H 2.325618695640909 2.5098265462272726 1.6826839842363637
H 2.131232029540909 -1.7853628644727273 0.30606095573636366
H 0.8112589154409089 -1.7306837649727274 1.4736954815363636
H 0.484530881040909 -1.8550017228727276 -1.5684739278636362
H 0.02809341494090889 -3.0929239751727273 -0.4033345589636363
H -1.963732795959091 -1.6825299081727274 -1.1110662679636363
H -1.646613383959091 -1.5323956794727276 0.6203175945363637
H -0.7511877736590913 0.3924448074272726 -1.5743308196636363
H -2.683572554559091 0.7923207103272726 0.7725393100363637
H -2.1658095977590914 2.0478277976272725 -0.3673320552636364
H -3.1429303025590913 0.6805033211272726 -0.9406111811636362
