21
098296
C 0.39240241688095234 3.094285978738095 0.10692953972857144
N 0.1489938991809523 1.6696568822380953 0.17760379892857142
C 0.8483177112809523 0.7673003802380952 -0.5557286002714286
O 1.7308406709809523 1.0530458354380952 -1.3480276570714285
C 0.4826527279809524 -0.7015304535619049 -0.2816033777714285
C 1.5567857354809524 -1.3240224647619048 0.6176042300285715
N -0.8354652880190474 -0.813671752061905 0.34592007062857144
C -1.9792361054190475 -0.9539169502619047 -0.5549140078714285
C -1.4968940772190478 -2.1108535900619048 0.24635289002857147
H 0.7442557716809524 3.490162550238095 1.0668050562285714
H 1.1635018284809524 3.2573411441380955 -0.6474727091714285
H -0.5130997113190476 3.639763825238095 -0.18193530707142858
H -0.5456809705190475 1.292317644338095 0.8050536894285715
H 0.5096157139809524 -1.2012019162619048 -1.2636595774714285
H 1.3806523310809524 -2.395828777961905 0.7482715664285714
H 2.5403843775809527 -1.1818856631619048 0.16476571742857143
H 1.5490671377809524 -0.851622343761905 1.6044541619285715
H -2.8790490607190478 -0.41960346426190487 -0.2647569561714286
H -1.7823715785190477 -0.969364303161905 -1.6251210641714287
H -0.9774253762190477 -2.9029032859619046 -0.28984934207142854
H -2.0382481544190476 -2.4374692753619045 1.1293078783285715
