20
098462
C -0.525488280405 2.746660365295 0.8065287638050003
C -0.7671210050049999 1.3218387953950002 0.3154778411050002
C 0.5057009182950001 0.5170939589950001 0.1462345420050002
O 1.600201266595 0.9670605666950001 0.4225303624050002
C 0.3916006097950001 -0.8995169615049998 -0.3761661111949999
C -0.925823377305 -1.6347756648049998 -0.26704132439499983
O -1.2993512164049998 -1.8331803459049998 1.0874593559050003
C 1.3597665720949998 -1.2497406830049997 -1.464294421595
N 1.5696129817950002 -1.7532399282049997 -0.11185686409499973
H -0.003418443904999957 2.744103735595 1.766476409605
H 0.09468559469500004 3.306128629695 0.10135408470500029
H -1.474402811105 3.275854027495 0.9288706131050002
H -1.4062461532050001 0.7561873009950001 1.0062280491050002
H -1.305200240905 1.316760853795 -0.6428033074949997
H -1.739645721805 -1.067562732805 -0.7285965588949999
H -0.839615329505 -2.590542282205 -0.8026276463949997
H -0.5751892314049999 -2.3199667808049997 1.498990279805
H 1.069839977595 -1.9918622997049997 -2.2036164000949996
H 2.006105389795 -0.45443624290499995 -1.8240262388949997
H 2.263988500295 -1.1568643121049997 0.3408785715050002
