18
098639
C -1.5266136003500002 2.569994323105555 -0.7877549873833335
N -1.18591511715 1.1619422418055554 -0.7144177039833335
C -0.12180933854999998 0.6981516577055554 -0.0021945892833334923
O 0.62953372975 1.4242051245055554 0.6299023948166667
C 0.08553834544999994 -0.8053907463944445 -0.03686317868333344
C 1.53711789395 -1.2573040748944444 -0.40876547188333345
C 1.4989193575500002 -2.1819965893944446 0.8151636541166665
O 2.1254989443500003 -3.143319114994444 1.1498436585166665
C 0.25400838154999994 -1.4752092887944448 1.3675917840166665
H -1.49102406855 2.9349234496055554 -1.8201185152833335
H -2.52702155815 2.759210988105555 -0.38324732408333345
H -0.79187653895 3.1120386396055553 -0.19166099608333342
H -1.75882591145 0.4994266444055554 -1.2096212694833335
H -0.66532266825 -1.3192888387944444 -0.6422606648833334
H 1.71335985695 -1.7160374125944444 -1.3837855530833334
H 2.2429065709500002 -0.4350311490944445 -0.2502457220833334
H 0.53454932475 -0.7251936780944446 2.1146941463166664
H -0.55302360385 -2.1011221757944445 1.7537403384166665
