15
098826
O 1.3860549374066664 2.766756348693333 0.38357937408000004
C 1.3514543008066664 1.383567213793333 0.56049197598
C -0.06638025529333369 0.8476724610933332 0.44663423848000006
O -1.0003986829933336 1.5955144769933332 0.27645206788000004
C -0.22427695339333353 -0.6627213284066669 0.49619802858000006
O -1.5752128086933337 -1.1292534513066668 0.50548951688
C -1.4900986164933334 -1.7556324252066668 -0.79275372092
C -0.01715277469333354 -1.3515556726066669 -0.88252100662
O 0.8884854840066664 -1.4820879811066667 -1.64077522782
H 0.4602095041066664 3.0393978890933333 0.2864911800800001
H 1.9744468210066664 0.8647827570933331 -0.18805023942
H 1.7488137281066662 1.0914398761933333 1.54812054058
H 0.38778943400666643 -1.0917470504066669 1.3013822132800001
H -1.6822222881933335 -2.834652806406667 -0.76353667692
H -2.1415118296933335 -1.2814803075066667 -1.53720226412
