14
098966
O 1.7068755168571428 2.6427138025500003 0.001908753014285709
C 1.4726692787571427 1.26464030475 -0.007608788085714291
C -0.04170955894285733 1.03224925555 0.00622926011428571
O -0.8619497930428575 1.90232649505 0.01814139871428571
N -0.35115399064285735 -0.34537870675000004 0.002567222914285709
C -1.6163754551428575 -0.92740182815 0.011050219214285709
O -2.668514619942857 -0.35197974764999995 0.02316053101428571
C -1.5245644725428573 -2.47218082015 0.0028316628142857087
O -2.498191146242857 -3.16516909965 0.0077278906142857085
H 2.6574342942571425 2.78768584245 -0.01789214938571429
H 1.8836767949571427 0.76689790965 -0.9036896084857143
H 1.9026967606571428 0.75161838835 0.8708743554142857
H 0.4328263723571426 -0.9832165792499998 -0.007242541685714291
H -0.4937199813428572 -2.90280521675 -0.008058206185714291
