14
099429
O 1.2992269750857142 1.5095431167214284 -0.00463572552857143
C 1.3387109874857142 0.10670886422142856 -0.01235209442857143
C -0.14207750781428574 -0.39756886357857146 -0.0009019281285714293
C -0.827468689714286 0.053758342021428554 1.2203109214714285
C -1.374275337314286 0.41049246172142856 2.225922429771429
C -0.850676325614286 0.06685946342142855 -1.2038213030285716
C -1.416609204714286 0.4343895357214285 -2.1948569928285715
C -0.08822129481428576 -1.8798205758785715 -0.00942612532857143
N -0.006647388314285685 -3.031283231678571 -0.01632734842857143
H 2.202504609185714 1.8395403112214286 -0.009740969828571429
H 1.8194974614857142 -0.2990044610785715 -0.9130588488285715
H 1.836498770485714 -0.30838682687857144 0.8747288378714286
H -1.8655787761142857 0.7307716370214286 3.111852541971429
H -1.9248842793142857 0.7640002270214286 -3.0676933947285714
