19
099660
O 1.638830111905263 2.4933672354315792 0.16273804676842107
C 1.5444885793052632 1.087574381831579 0.2137030307684211
C 0.12290682840526301 0.574845792931579 -0.12284210363157891
C -0.26244477889473683 1.062751365631579 -1.4477818418315789
C -0.508044241494737 1.491436384431579 -2.545053081131579
C 0.04726407700526303 -0.943619091468421 -0.04386086973157891
C -0.006561844294736829 -1.630377185368421 1.308826245368421
C -1.212863594994737 -1.625428687668421 0.40264763166842105
O -2.296154471794737 -0.7989984403684209 0.7136760438684211
H 1.340932868705263 2.763064743931579 -0.714869225931579
H 2.268301647005263 0.6040266434315791 -0.4619184951315789
H 1.7944113628052631 0.793473095031579 1.237283569368421
H -0.5701104026947368 0.997958514231579 0.6126969558684211
H -0.765844423694737 1.855258157831579 -3.508962680731579
H 0.6082329430052631 -1.4541776085684208 -0.8211800435315789
H 0.5476140368052631 -2.550982006768421 1.454774072468421
H -0.06296626999473687 -0.9888337853684208 2.182820187268421
H -1.478661672494737 -2.5561776717684213 -0.09786177843157892
H -2.749330754594737 -1.1751618373684212 1.475164336668421
