27
101231
C 1.696384770177778 2.9959471359037035 -0.3846812672222222
C 1.574561288077778 1.4683811153037034 -0.38532203352222216
C 0.14162637617777785 0.9320735865037035 -0.5653252785222221
C -0.4539206032222223 1.2979674376037034 -1.9326152555222222
C 0.10121298327777795 -0.5809210457962966 -0.34832519802222217
C 0.43470903317777787 -1.1636724924962965 1.0550801563777779
C -0.690280498522222 -2.2165377451962964 0.8493727067777779
C -1.569511731122222 -2.603615494796296 2.028209049777778
C -1.274041075822222 -1.3032111757962965 -0.26452314862222215
H 2.728051316377778 3.3064374796037033 -0.1906641781222222
H 1.398874174377778 3.4320960576037036 -1.3432193644222221
H 1.065013629877778 3.4418621619037033 0.3924637848777778
H 2.211991909277778 1.0500389817037035 -1.177115157722222
H 1.9756397232777778 1.0827197671037034 0.5602159801777777
H -0.48747506222222214 1.3920183126037036 0.21336373817777776
H -0.513891379422222 2.3805825701037033 -2.076335616422222
H 0.15678324577777802 0.8866664016037035 -2.7459020533222223
H -1.465931071522222 0.8954127143037035 -2.042166973822222
H 0.7264875478777779 -1.0697887039962966 -1.1073778854222223
H 1.4490837425777778 -1.5267927507962964 1.2400935712777779
H 0.16992433907777782 -0.45453227499629656 1.8491606648777776
H -0.2646481917222221 -3.1185062727962967 0.39407794807777785
H -2.005568228322222 -1.7157647710962964 2.500731645177778
H -2.3951180235222225 -3.252551904396296 1.714141854077778
H -0.9979287323222221 -3.140742517696296 2.7938375639777777
H -2.045088921122222 -0.6355739437962964 0.13923865377777778
H -1.666940560522222 -1.7799926281962966 -1.1664139067222221
