23
101780
C 1.8112210665695654 2.852354740956522 0.15296579654347828
C 1.7429868670695654 1.3245720293565217 0.06637382734347828
C 0.3136310394695654 0.7503866502565216 0.06245121104347829
C -0.5005258535304349 1.1855613318565217 -1.1637535715565217
C 0.38539881426956524 -0.7709414172434785 0.1613760406434783
O -0.9527283425304347 -1.2809692490434785 0.32186549544347826
C -1.0710406734304345 -2.624004974743478 0.3766114754434783
C -2.517691126230435 -3.0250520215434786 0.5444667147434783
O -0.13677395933043468 -3.381225067643478 0.30037918434347827
H 2.8497700821695653 3.1919509602565217 0.2126468334434783
H 1.3591647037695653 3.3324690506565218 -0.7199265312565217
H 1.2895333208695652 3.221096739056522 1.0432964568434784
H 2.2684498927695653 0.9853909185565217 -0.8370572942565218
H 2.292250162469565 0.8967180287565217 0.9150198879434782
H -0.2004455721304348 1.1091533485565217 0.9655719677434783
H -1.4852118203304348 0.7119938438565216 -1.1600417674565215
H -0.6486183932304348 2.2683879402565217 -1.1868234963565216
H 0.010065767969565265 0.8972148291565216 -2.090926046156522
H 0.8300310965695653 -1.2130587302434783 -0.7375512957565218
H 0.9886229551695653 -1.0904634824434782 1.0175560052434782
H -3.1103588025304347 -2.652182453943478 -0.29578764805652175
H -2.5893274008304346 -4.110661383943478 0.5967922871434783
H -2.9284038250304345 -2.5786916307434784 1.4544944669434783
