17
102351
O 1.407400519682353 1.949105317135294 -0.0030384613235293952
C 1.4231217074823528 0.5405907348352941 -0.010708961123529395
C -0.04293684421764721 0.02944687413529412 0.0005537398764706037
C 0.006052107182352939 -1.5223955864647056 -0.008261998823529395
O -1.3142847627176473 -2.013137192064706 0.0016066581764706041
C -0.719541729817647 0.4956773784352941 1.2186249639764706
C -1.2421309850176472 0.8559376187352941 2.237374537676471
C -0.7426480680176473 0.5086856979352941 -1.1992783430235294
C -1.284575474617647 0.8798355581352941 -2.2039175206235293
H 2.316931743682353 2.260487860735294 -0.010007991923529396
H 1.9157103114823528 0.14335933623529407 -0.9110797798235294
H 1.9327679009823528 0.1338141235352941 0.8757999193764706
H 0.5526303826823529 -1.8410842075647058 -0.9087055296235294
H 0.5695697773823529 -1.850695804364706 0.8781743926764707
H -1.278556607417647 -2.9738409770647056 -0.0034860322235293947
H -1.720096371417647 1.1854118698352942 3.1263865096764705
H -1.779413607317647 1.218801397835294 -3.0800361029235295
