23
103084
C -0.3537686878434781 2.3199075017391304 1.285124996230435
O -0.701844204143478 0.9809833509391304 0.956820563630435
C -0.044350358243478105 0.45876390783913035 -0.18102731346956502
C -0.26072053554347807 1.2461540646391303 -1.453777286269565
C 1.263977563256522 -0.22989302266086975 0.15977099653043492
O 1.767725119856522 -0.13984119106086967 1.459433591230435
C 0.03664886705652193 -1.0698702653608698 -0.16611707866956515
C -0.6551789522434781 -1.8323195429608699 0.950341033530435
C 0.03251828655652189 -1.8229778116608697 -1.485929097869565
H 0.734288712756522 2.4590205598391304 1.3291054703304348
H -0.774470396343478 3.04005036993913 0.5722590452304349
H -0.7820725663434781 2.5189914255391304 2.270867514330435
H 0.16144937185652186 2.2537841651391304 -1.3825213578695652
H 0.21699775185652193 0.7589183660391303 -2.305103241169565
H -1.330482153443478 1.3396476690391304 -1.672891787269565
H 2.073427080656522 -0.2144727617608697 -0.5653029967695651
H 1.0354358553565217 0.15427580743913027 2.014820788030435
H -0.7312135771434781 -1.2578433525608699 1.872958897130435
H -1.6741657700434782 -2.1032342277608693 0.651562987430435
H -0.11257625784347813 -2.75930941146087 1.166059080130435
H 0.399585436256522 -2.8439528403608696 -1.330652820869565
H -0.9776825890434782 -1.8950838034608697 -1.906411224569565
H 0.676472002756522 -1.3616989570608695 -2.239390758969565
