19
103351
O 2.1898958813 0.6162908391315791 1.5807456439157894
C 1.5602463659 0.956601171031579 0.3616982668157895
C 0.15805099060000005 0.35842244513157906 0.28304509841578945
O -0.5472349331999997 0.878354200131579 1.4325109618157894
C -0.6233589098999996 0.2565927514315791 -1.0677273920842105
C 0.32088216320000007 -0.930387917268421 -1.4211832054842106
C -0.05943531439999994 -1.1688193651684209 0.06936696951578947
C -1.5292360781 -0.8463922810684209 -0.3943887808842106
O -2.5566852978999997 -0.5530683179684209 0.4887256206157895
H 1.5207103675000002 0.7348305220315791 2.2659307752157893
H 1.4723609664000001 2.054212655531579 0.24720501251578947
H 2.2136785085 0.6084190737315791 -0.43886621908421053
H -0.6371320190999998 1.8320414967315792 1.3142275264157894
H -0.930826961 1.077003794031579 -1.7189939649842105
H -0.08303989219999974 -1.655994117268421 -2.1296170564842107
H 1.3597228756000002 -0.704927960668421 -1.6490454377842108
H 0.2826667852000002 -1.972043670368421 0.7216407165157894
H -1.9299012667999997 -1.5686960479684209 -1.1103481651842104
H -2.1813642316 0.027560728831579118 1.1650736302157894
