19
103586
C -1.0343614751 1.8861140011631576 -1.1417524085315789
O -0.897066665 0.48205756596315774 -1.0843786646315787
C -0.21746959180000003 -0.07080510853684224 0.04884319976842111
C -0.8821895613 0.33890798556315777 1.3717568170684213
C -0.20511190320000006 -1.6001743945368423 -0.15436723343157877
C 1.2662752261999999 -2.0271197086368424 -0.08579305133157877
O 1.6818674168999999 -3.161261042536842 -0.08643342033157886
C 2.0690068077999997 -0.7803390274368422 -0.016495889731578783
C 1.2663277496999998 0.28519654806315775 0.04454774756842128
H -0.06812585540000005 2.409891146163158 -1.1213282480315787
H -1.5202488578 2.1064885540631577 -2.0953554799315786
H -1.6628721249 2.283907375563158 -0.3337536666315788
H -1.9542706211 0.12243310926315776 1.3311763677684212
H -0.44403710650000006 -0.22302247723684226 2.201371396768421
H -0.7505392853 1.4031656382631577 1.5883716776684214
H -0.798526278 -2.1484473962368424 0.5810485347684211
H -0.6012691555 -1.8351204951368425 -1.1458650276315787
H 3.1520224649999995 -0.7869137630368424 -0.012025612031578703
H 1.6005888152999996 1.3150414892631577 0.11043296086842114
