21
104464
O 1.7171369336 2.169812018438095 0.3880500633190476
C 1.8025484235 0.7502220850380952 0.2733244482190476
C 0.36701057400000003 0.21957232853809516 0.2876403268190476
O -0.2694034152000002 0.6887732135380952 1.4771943854190477
C -0.4193701662000002 0.6864695202380952 -0.9579827570809524
C -1.8060077753 0.0435990155380952 -0.9812077949809525
O -1.7211227465999999 -1.3731652187619048 -0.9560481391809524
C -1.0905410285000001 -1.8379929406619047 0.22540784741904762
C 0.34422833920000007 -1.3131104958619049 0.3473425117190476
H 2.5834618058 2.514373915638095 0.6197732193190476
H 2.3139291028 0.4567408454380952 -0.6550464831809524
H 2.349176446 0.32104098513809515 1.1251179759190477
H -0.02601288760000009 1.6209828899380951 1.5473797510190477
H -0.5006272258000002 1.778268880638095 -0.9552964735809523
H 0.1267812922 0.39721969963809517 -1.8642582228809523
H -2.3921458244000005 0.40453826523809516 -0.12205147828095236
H -2.3433418437999998 0.3017590583380952 -1.8982959107809525
H -1.66804263 -1.533328625261905 1.1115388374190476
H -1.0995553034999999 -2.930431615761905 0.16948309161904762
H 0.9470609669 -1.716696294861905 -0.47468991898095236
H 0.7848369629 -1.648647530161905 1.2926247207190475
