25
105509
C 1.173344727308 1.995108651196 -0.13070022449999993
C 1.172799379108 0.47119204069599996 0.07266750400000006
C 1.8408436018079999 0.09655325279599997 1.4057245127000002
C -0.22169638369200007 -0.16813950960399998 -0.11150119299999993
C -1.2253278679919999 0.32241043959599996 0.9306218845
O -2.482943925892 -0.30640184870400006 0.6997046447000002
C -0.7901903600919999 -0.08914405070400006 -1.5696492351
C -1.032433647992 -1.6214917735040002 -1.5550811557
C -0.21340344339200001 -1.729719895204 -0.24189499039999995
H 2.1990317068080003 2.377132082396 -0.16573018569999992
H 0.681236665108 2.276779340896 -1.0670048363
H 0.6623194429079999 2.516267584596 0.6861255577
H 1.792842575908 0.041873077495999944 -0.7272127978999999
H 1.345536930108 0.5729352020959999 2.2587721879
H 1.828100505208 -0.9851670361040001 1.5727430536000002
H 2.886196475108 0.42264318159599995 1.4159915388000002
H -0.860457416192 0.08340195379599996 1.9412196909000001
H -1.3288369930919999 1.416147687596 0.8628025367000001
H -3.1015120950919997 0.01156188059599994 1.3627523285
H -1.6746269213920002 0.5366311728959999 -1.708094536
H -0.02767360119200002 0.21859341939599997 -2.2916165582
H -2.0836384688920004 -1.8704583546040001 -1.4060539338
H -0.6520676862920001 -2.181833605704 -2.4126746489
H 0.795786144108 -2.1236181060040002 -0.3960145527999999
H -0.6832293422919999 -2.283256787504 0.5741034083000001
