21
106298
C -0.18784312242857143 2.553040486042857 0.23848853191904762
C 0.08743791247142858 1.076631049242857 0.21718744391904762
C 0.8868357183714286 0.35779537624285707 -0.9003505534809524
C -0.04504363672857142 -0.779465955057143 -0.42969947668095243
C -0.5738871100285714 -1.8843008467571427 -1.3067334900809524
O -1.6687328729285713 -2.540788742157143 -0.6897794624809523
C 0.4682385797714286 -1.100144504557143 0.9929134138190476
C 0.5746202330714285 0.3682923072428571 1.5049212896190476
O -1.0689406685285714 0.23979408664285706 -0.14502723698095238
H 0.7284636326714286 3.106957216942857 0.4678410679190476
H -0.5679942289285714 2.895445727242857 -0.7278727577809524
H -0.9306980090285715 2.793351537242857 1.0063897676190476
H 0.6194721651714286 0.7261053695428571 -1.8923999623809522
H 1.9682771642714285 0.2399764787428571 -0.7920559579809523
H -0.8540542400285714 -1.469590032457143 -2.2872777149809522
H 0.2005095121714286 -2.641888652957143 -1.4707953457809524
H -2.2943819960285716 -1.848734295657143 -0.4445069094809524
H -0.2603430441285714 -1.6989953336571428 1.5406669930190475
H 1.4239747957714286 -1.631742657857143 0.9853602681190476
H 1.5889582424714286 0.6622430100428571 1.7896263381190476
H -0.09486902742857142 0.5760183759428571 2.3431037540190474
