17
106880
C -0.37835221320588247 1.3914425374999997 -1.7458912602941177
O -0.9281354433058825 1.1774213634999997 -0.44870974099411776
C -0.1673066740058825 0.48413793879999983 0.43924320430588226
C 1.2676133040941178 0.0990084231999998 0.3453294147058823
C 0.2639086221941176 -1.0227011263 0.5598140522058823
O -0.15457366680588247 -1.0718473540000002 1.9208562215058824
C -0.6842205941058824 0.2786333195999998 1.8557918156058821
C 0.0480023880941175 -2.1510838383000004 -0.33954759559411773
O 0.38070410339411753 -2.1653442302 -1.5070311546941177
H -0.1544061577058825 0.4410961911999998 -2.241967596194118
H -1.1415636577058825 1.9288223364 -2.310406805394118
H 0.5315766113941175 2.0018916002999996 -1.6948415202941178
H 1.6889655124941179 0.09515023369999975 -0.6539421099941177
H 1.9656988453941175 0.31771997119999984 1.1508991811058824
H -0.27502749690588246 0.9269034043999999 2.6382736894058825
H -1.7779003280058823 0.2717627186999998 1.8979842150058823
H -0.48498315530588243 -3.0030134897000003 0.1341459896058823
