19
107507
C -0.18681092964736845 1.5869263782105263 -2.1589716378736843
O -0.48869612314736843 0.20800073641052633 -1.9567036128736843
C 0.11558472245263152 -0.31157641988947365 -0.8482323442736843
C 1.5559267192526316 -0.8418561731894738 -0.8547493239736843
C 0.41151930945263154 -1.7602230680894737 -0.5194308230736844
N -0.06790266624736846 -1.5486400959894737 0.8562605889263155
C -0.32688585574736845 -0.1620999579894737 0.5837439716263155
N -0.7978597065473685 0.7967657525105263 1.2476049369263156
C -1.1321693610473684 0.5676774304105263 2.645089950826316
H 0.8903186179526317 1.7351644317105264 -2.3179578519736843
H -0.7299993429473685 1.8968213981105262 -3.053782268573684
H -0.5106063386473685 2.1880665200105263 -1.3023675528736842
H 1.9590309386526317 -0.9487993049894736 -1.8580246188736842
H 2.2745925869526316 -0.5547599194894737 -0.0917667930736843
H 0.1487005921526316 -2.6552835274894737 -1.0675064791736841
H 0.5582819963526315 -1.7862897608894737 1.6203663977263156
H -1.2549571874473684 -0.4938996481894737 2.9024815974263154
H -0.35423102824736846 0.9928544682105263 3.292157867126316
H -2.0638369435473685 1.0911507606105264 2.8817879960263157
