21
107662
C 1.7669906230666665 2.0102790006238096 0.5645556979047619
C 1.6382890531666665 0.5822618343238096 0.022897156804761953
C 0.24988054926666647 0.007327263923809557 0.19873349860476197
C -0.13387571953333355 -0.6023007135761904 1.5317489823047619
C 0.06075101376666647 -1.4822166929761906 0.30706315700476194
O -1.0807807994333334 -2.0728916852761907 -0.25127544609523805
C -1.6103427955333334 -1.3245755873761904 -1.336736974895238
C -1.8774967196333334 0.1085169612238096 -0.9068965784952381
O -0.6740581821333336 0.7678932478238096 -0.5413130590952381
H 2.7768724819666666 2.39922244662381 0.403501496604762
H 1.0589541591666665 2.6760446147238097 0.06471907070476196
H 1.5589527914666665 2.0446002346238097 1.639147649704762
H 1.8852609597666665 0.5649808175238096 -1.045735383295238
H 2.3553647067666663 -0.07690967017619044 0.525865042704762
H 0.6081795516666664 -0.6229126780761904 2.322940724404762
H -1.1588505493333334 -0.5003765562761904 1.8704671129047619
H 0.9363506390666665 -2.1269801861761906 0.25400464860476196
H -0.9189531031333338 -1.3330303514761903 -2.193550930095238
H -2.539968707033333 -1.8204796790761903 -1.630355141895238
H -2.3062769930333333 0.6915306951238096 -1.727884983295238
H -2.5952429603333336 0.11001668392380959 -0.07189574109523805
