17
109048
O 1.9483489444411766 2.1723928293941177 0.12754316546470593
C 1.8076981491411765 0.7725689039941177 0.2881043594647059
C 0.3887610706411766 0.29488923079411766 0.28237994916470593
C -0.7224522131588236 1.0377845614941177 0.2561744970647059
C -1.9283974117588234 0.16430212709411773 0.13030254206470593
O -1.9373225836588235 -0.6301569430058823 -1.093159347135294
C -1.4604344391588233 -1.2227821136058825 0.12272502906470592
C 0.07062730714117649 -1.2021218578058823 0.18745487436470593
O 0.6676904874411766 -1.8103000794058826 -0.947787958135294
H 1.6054116989411766 2.3981190919941175 -0.7436083005352941
H 2.3699938980411765 0.2073452669941177 -0.4720124285352941
H 2.2753034981411764 0.5334372513941177 1.252877705464706
H -0.7588598819588235 2.1192422444941177 0.2867843933647059
H -2.9107257555588237 0.4658928248941177 0.4783457712647059
H -2.0293844151588236 -2.0706245517058823 0.4922509606647059
H 0.4448309106411765 -1.7546026861058825 1.057396860864706
H 0.16891073584117655 -1.4753861009058826 -1.705772073935294
