23
109795
C 0.4235111191304349 2.979843700078261 -0.39155061059130436
O 0.34379095183043484 1.7464309607782609 0.29437484450869567
C -0.839303111169565 1.056843858478261 0.03338389880869563
C -0.8917250049695651 0.06944117757826085 -1.1186674038913043
C 0.2814698915304349 -0.10626569822173915 -2.0590978077913045
C -0.835276310069565 -0.41656456322173896 0.32726174400869557
C 0.3732856450304349 -1.086190154621739 0.9036072276086955
C 0.2930703042304349 -1.728780027821739 2.267131049608696
C 0.4128361485304349 -2.590404434021739 1.0343174150086956
H 1.3717811994304348 3.444521368578261 -0.11068932359130437
H 0.3960324946304349 2.8457529621782607 -1.4818129090913044
H -0.3999416398695651 3.651743334578261 -0.10493508659130436
H -1.7386819217695653 1.6326497798782609 0.2612121410086956
H -1.8638288277695652 -0.03173558662173903 -1.5957289812913045
H 1.2210993185304349 0.19207245967826103 -1.5889715999913043
H 0.3817467349304349 -1.1495008356217389 -2.3774618643913046
H 0.1530179708304349 0.503439980678261 -2.9602089013913044
H -1.771485886269565 -0.8105316494217389 0.7172847371086956
H 1.3135095456304349 -0.5992330072217389 0.6750462095086956
H 1.150317390730435 -1.6454059241217391 2.9259827170086954
H -0.6627107626695652 -1.709244957721739 2.7810437893086957
H -0.46389443606956515 -3.1476473820217388 0.7201559802086956
H 1.351379185630435 -3.1012353618217388 0.8483227349086957
