21
110318
C 0.848738108604762 2.4366833439714286 0.17353942936190475
C 0.779248603504762 1.0520989026714287 0.8277618803619047
C -0.584591747795238 0.4054781321714286 0.6652629618619047
C -1.158914115995238 -0.19997533862857142 -0.6079719976380953
C -0.14069056659523804 -1.0219338729285716 -1.3847646830380953
O 0.903596681904762 -0.26577528572857134 -1.9665568569380951
C 0.15507642610476202 -1.8803213259285714 -0.10203500113809527
C -0.9089414924952379 -1.0580050187285714 0.6368952970619047
O -1.8785727702952382 -1.6315586669285713 1.4449247854619047
H 1.822043370404762 2.9071135771714287 0.3463824070619047
H 0.699603987104762 2.350055036671429 -0.9063594492380953
H 0.07886056890476201 3.107396380571428 0.5719375236619048
H 1.555442666004762 0.41907210787142857 0.39234732106190473
H 1.001151471104762 1.1363953046714286 1.9005866808619047
H -1.376827510895238 0.9465001994714286 1.1842988100619047
H -2.0972891587952383 0.15674819387142858 -1.0149836114380952
H -0.638280848695238 -1.6369378115285713 -2.1461255602380955
H 1.487126466704762 -0.8703578531285714 -2.436135678238095
H -0.14957097449523804 -2.922309437828571 -0.22358846983809522
H 1.177629595904762 -1.8435739565285714 0.28666928816190473
H -1.5748387601952378 -1.5867926112285715 2.3579149227619047
