21
111814
C -0.28798025303333336 2.5673054029952382 1.2765789658142859
C -0.10634568123333335 1.0448278069952381 1.312384324614286
C 0.6514569788666666 0.5235465577952381 0.09339663261428588
C 0.9653169317666667 -0.990076022004762 -0.13390357368571415
C -0.16553622093333334 -1.9987490963047618 0.21390529591428598
C -0.7011716329333333 -1.9301075638047618 -1.2471157282857142
C 0.41026892666666664 -0.8954038310047618 -1.606591980285714
C -0.025470460533333343 0.541378910895238 -1.2916960893857141
O -0.6930415490333334 1.3485904180952382 -1.876664519285714
H 0.6805946379666666 3.0795359557952384 1.293445779514286
H -0.8100527939333333 2.871106203295238 0.3653832832142859
H -0.8649407167333334 2.915312939595238 2.138730334514286
H 0.43246164816666666 0.7494134795952381 2.221918712514286
H -1.0903930982333334 0.564521238395238 1.367578733014286
H 1.5950995093666667 1.080778925895238 -0.011594379085714035
H 1.9847962607666667 -1.300177656304762 0.09306396511428594
H 0.21145278616666666 -2.9864644302047614 0.4880893371142859
H -0.8613428878333333 -1.680230513004762 0.9938458794142859
H -0.5892215587333334 -2.8694960352047616 -1.792338861385714
H -1.7266590431333333 -1.5780676931047621 -1.382904888485714
H 0.9907082165666667 -1.0575449984047618 -2.5155112234857144
