23
112566
C -0.8596881326565217 2.2745513889 0.2619838837652174
C -0.8974841239565217 0.7383331281999999 0.2985335953652174
C -2.3647730019565216 0.2614360409999999 0.3390607953652174
C -0.1263957286565216 0.1034710406999999 -0.9006672603347827
C 0.6666886586434783 -1.1022441368 -0.33423177063478254
C 2.053384973843478 -1.2510139529000002 -0.9551229813347826
O 2.663810899443478 -2.4050394390000003 -0.39475177743478257
C 0.6888543233434784 -0.8179097583000001 1.1509292691652173
C -0.13451276935652168 0.17233087439999994 1.4838426094652173
H 0.1708183200434784 2.6439407915 0.2724466221652174
H -1.3481240110565216 2.6579959158 -0.6413140742347825
H -1.3796494153565217 2.7040490527 1.1259047416652175
H -2.9269366588565218 0.6542544277999999 -0.5161020888347827
H -2.426032624756522 -0.8311104423000002 0.31600774886521743
H -2.8643102704565218 0.6035076561999999 1.2523276816652174
H -0.7946917491565216 -0.17860782640000006 -1.7195802088347827
H 0.5798622934434784 0.8393881927999999 -1.3050646424347827
H 0.13954186104347832 -2.0490544996000004 -0.5215620515347825
H 1.9609363975434784 -1.3414072623 -2.0500252950347826
H 2.6440984592434784 -0.3441677845000002 -0.7459469024347827
H 3.5575485347434785 -2.4733057255000004 -0.7424411854347825
H 1.3029157457434781 -1.3947007654000003 1.8325594405652172
H -0.3058619808565216 0.5353030829999998 2.4932138504652177
