16
113652
O 0.6498617363437501 2.759791493 -1.10541317431875
C 0.8342004240437502 1.6080519991000002 -0.29643147521874996
C -0.5055256946562499 0.9994980012000001 0.05127247588125
N -1.14073286075625 0.22789804100000022 -1.0087514675187501
C -0.74315010045625 -0.48024358899999986 0.22708586228125
C 0.3448506913437501 -1.4905117122999998 0.11340530558125
O 1.22155040264375 -1.5095339921 -0.72112623791875
C 0.3444918957437501 -2.6036652073999997 1.17271184638125
O -0.47647660035624995 -2.7010144633 2.04664033098125
H 0.2857991641437501 2.4509844173 -1.9426760788187498
H 1.4667916716437501 0.8617308991000001 -0.78799157531875
H 1.33790181814375 1.9488281275000001 0.61404347318125
H -1.1436181951562499 1.6371145127000002 0.66194419858125
H -2.14911289415625 0.3593508475 -1.00382343641875
H -1.5137547527562498 -0.7543255358999998 0.9406124338812499
H 1.18692329424375 -3.3139538384 1.03849751878125
