21
114483
C -0.41529973460952396 2.606222722009524 1.1340429532904763
O -0.7978969989095239 1.313728431709524 0.7251064742904763
C -0.203543540609524 0.9141100310095238 -0.4830764592095237
C 1.299413359690476 0.49638103300952385 -0.4414023730095237
C 0.9013359652904761 -0.9187890840904762 -0.9803005297095239
C 1.0036464293904759 -2.046605733890476 0.0079393541904762
C -0.163585933409524 -2.315763944890476 0.5920862697904763
C -1.291940345709524 -1.4382085400904763 0.09963159409047628
C -0.612598413809524 -0.514582730190476 -0.9404561240095238
H 0.668378865790476 2.680455129509524 1.3096862179904762
H -0.694458815409524 3.366116731509524 0.38665280649047623
H -0.937661903809524 2.8211448188095236 2.069480525590476
H -0.399286468009524 1.6714623990095239 -1.2583491814095238
H 1.9653386238904762 1.081006355709524 -1.0812768664095236
H 1.7082493420904763 0.47252660520952383 0.5721313946904762
H 1.326424023990476 -1.156016834390476 -1.9597963759095238
H 1.941790432990476 -2.5464577672904762 0.22674475079047618
H -0.316598944109524 -3.076101845690476 1.3512112015904763
H -2.099326838009524 -2.032234635990476 -0.34712029170952385
H -1.7425695825095238 -0.8592738016904762 0.9127614836904763
H -1.1398095242095239 -0.519119339290476 -1.8956968251095239
