19
114635
C -1.1355196799578946 2.3820399888157895 -0.6359582733368421
O -0.5002293337578945 1.1474875005157894 -0.884216983136842
C -0.1555976836578945 0.4588555526157894 0.2775761374631579
C -1.2754443728578946 -0.30706827378421053 1.090059461063158
C -0.47886339455789456 -1.5909672405842106 0.8347442480631578
O -0.4202199330578945 -1.7573104836842106 -0.5833448398368422
C 0.5451979619421056 -0.8848226199842106 0.03744355476315786
C 1.9861217703421055 -1.1702813399842105 -0.24077325813684214
O 2.3766414444421056 -0.7471009899842105 -1.5355496036368421
H -0.49376594285789455 3.058224727315789 -0.04936777533684211
H -1.3398205442578945 2.8414306839157897 -1.605609715236842
H -2.0863410392578947 2.2547184532157893 -0.09685148223684203
H 0.43941577594210546 1.0934117211157894 0.9539850984631578
H -1.3329582592578946 -0.004876559184210594 2.1379602972631577
H -2.2694339033578945 -0.3059327757842105 0.6381229579631579
H -0.3893014510578945 -2.4809102354842105 1.4471687063631578
H 2.6212317738421054 -0.6204493066842105 0.462386603663158
H 2.1648771386421055 -2.2461504574842106 -0.0883885366368421
H 1.7440096727421053 -1.1202983448842108 -2.1593865975368423
