27
115277
C 1.7070511748000001 2.9785674216555558 0.7460354052296296
C 1.7854350887000001 1.4501522587555555 0.6700189863296296
C 0.4311975946000002 0.7610878741555556 0.4815367914296297
C -0.28817471299999964 1.0448745531555557 -0.8491981923703703
C -1.3906241408 -0.02423450534444438 -0.8912155428703704
C -0.7809044036999997 -1.3019826597444446 -0.22591526287037034
C -1.7659711817 -1.9124525442444442 0.7832044583296297
C -0.4221585135999999 -2.3533424430444443 -1.2882766218703705
C 0.5065573884000003 -0.7786443296444445 0.48930511782962965
H 2.69575996 3.4179748359555555 0.9120408325296296
H 1.3056965710000004 3.4077765267555558 -0.17767576207037028
H 1.0586853836000003 3.3005308122555554 1.5689451902296296
H 2.4501950457 1.1564795149555556 -0.15447526377037035
H 2.2545731579000003 1.0682277215555556 1.5863811847296296
H -0.2343600403999999 1.0824748119555556 1.2976120508296298
H -0.6819652259 2.0623303076555555 -0.9291926302703702
H 0.4177650772000001 0.9047194699555556 -1.6798658959703703
H -2.2530800235999995 0.3206195900555555 -0.30857250227037036
H -1.7549176048999997 -0.2226683822444444 -1.9041649134703706
H -2.7136506632999997 -2.177037878444444 0.29986989482962967
H -1.3578721693999998 -2.8230833953444443 1.2365985525296297
H -1.9917110298999998 -1.2083967757444443 1.5919595263296298
H 0.2266988699000001 -1.9289235184444444 -2.0625903825703706
H 0.10745137260000015 -3.202651038944444 -0.8413593954703703
H -1.3207148268999997 -2.7422601369444446 -1.7809727523703702
H 1.3973990306000001 -1.0929464658444443 -0.06983781027037028
H 0.6116388221000002 -1.1871916248444445 1.4998049373296296
