19
115451
C 1.5658901944736843 2.3667871872052633 0.45725004232631583
C 1.6731379714736843 0.8594166668052632 0.21416970512631583
C 0.32444268497368434 0.1728698494052633 0.2409843901263158
O -0.4924044662263156 0.6315396636052633 -0.823291723173684
C -1.4251909253263155 -0.3938973513947367 -1.097495183073684
C -0.7608474907263159 -1.6759365381947369 -0.4815772018736842
O 0.46940739417368427 -1.2202554995947366 0.020998269126315805
C -1.6573558235263157 -2.2794016496947367 0.5910974133263158
O -1.4532523718263157 -2.2117528902947368 1.7728514052263158
H 2.5543873438736844 2.8337558490052634 0.43663172332631583
H 0.9471301815736842 2.8412960871052633 -0.3090523256736842
H 1.1165813779736844 2.581083431005263 1.4330387703263159
H 2.132025669173684 0.6505948767052632 -0.7578980759736842
H 2.2976266862736843 0.3872751006052632 0.9800604167263158
H -0.19397988332631577 0.3358938585052632 1.2021342251263158
H -2.4005130913263155 -0.18275265199473678 -0.6348980744736841
H -1.5607509574263159 -0.46813301869473667 -2.1793259172736845
H -0.5735514697263155 -2.4407419978947367 -1.245329772673684
H -2.5627830245263157 -2.787640972194737 0.1796519134263158
