21
115827
C -0.6650684878714286 1.9420814294 2.0691436658523803
O -0.19747617677142854 0.6146101813000001 1.9261725264523806
C 0.8072460581285714 0.4727528684000001 0.9545050135523805
C 1.1984426788285716 -1.0028083207999998 0.8989155550523804
C 0.13035963402857148 -1.5644139102 -0.05487896084761967
C -0.09853058717142851 -0.39215863559999997 -0.9980345052476194
C 0.13333394002857146 -0.4500908956999998 -2.47925431844762
C -1.2700952656714284 -0.26704594319999986 -1.9180575065476195
O 0.3469146983285715 0.7922979002000001 -0.34461521034761944
H 0.1490568052285715 2.6234068361 2.3619225256523806
H -1.1132059554714284 2.3139032023 1.1404223678523804
H -1.4196240237714284 1.93304292 2.8588195398523806
H 1.6333985170285716 1.1659088929 1.1697915243523804
H 2.1990993780285715 -1.096119084 0.46690317275238047
H 1.1939437750285715 -1.4592547601 1.8892394354523805
H 0.44968909652857153 -2.4668786057 -0.5804162862476194
H -0.7829517648714286 -1.7941722992999998 0.5020663227523805
H 0.5992214182285714 0.4156466066000001 -2.9366858024476197
H 0.3934359305285715 -1.4024611043999997 -2.9299428562476195
H -1.9699677312714285 -1.0942871075999998 -1.98182130864762
H -1.7172219370714283 0.7160398294000001 -2.0141948945476194
