20
116817
C 2.1252216741949996 3.5731094145050006 0.7933326059
O 2.2681247255949994 2.1649417520050003 0.6471199271999999
C 1.1299088753949995 1.4522160857050004 0.7321852753
N 1.1457501735949995 0.19910963160500028 0.6181497897999999
C -0.12160577340500067 -0.4973101760949996 0.7101620917999999
C -0.39844020920500034 -1.2841834168949995 -0.5771196753
C -1.6889231757050003 -2.1157828088949997 -0.49132565680000007
C -1.8883980467050003 -2.9648380656949995 -1.7252983772000001
O -2.8600197394050006 -2.938216292595 -2.4355981289999997
H 3.1256323060949995 3.9948456074050003 0.6915538725999999
H 1.4776053686949995 3.9945967662050004 0.015038951699999914
H 1.7239295989949994 3.8358609888050004 1.7796350039999997
H 0.22410689639499948 2.0552553270050002 0.9082044132
H -0.06598868740500041 -1.2043448756949995 1.5491356697
H -0.9680577801050005 0.18166600070500039 0.9183301193
H -0.4629020902050005 -0.5838939139949995 -1.4183053486000001
H 0.46031731009499954 -1.9352059203949996 -0.7780380145
H -1.6201193855050007 -2.797006056195 0.37011821859999994
H -2.5729317377050007 -1.4854317134949997 -0.3557074881000001
H -1.0332103037050007 -3.6453883339949997 -1.9515732496
