21
117549
C 0.5077265506095238 2.302656793033333 -0.01223614116666668
N 0.5311392700095238 0.8488102123333333 0.10748093123333333
C 1.3842297862095236 0.41464468183333336 1.2101174823333334
C -0.8102221878904762 0.26890807473333334 0.11540068203333333
C -0.8259517680904763 -1.2501814255666668 -0.13443007456666667
C -0.13673621589047624 -1.6310153871666668 -1.4401058218666667
O -0.3270749573904762 -3.0257426015666664 -1.6161890341666665
C -1.5630975046904765 0.5894400436333334 1.3582162474333335
N -2.0985620862904764 0.8675477056333334 2.3446676540333335
H 1.530230794709524 2.6679844043333336 -0.14378586276666666
H -0.0721513804904762 2.5926944355333337 -0.8940720305666667
H 0.07400754740952376 2.806926890533333 0.8686093943333333
H 1.0153719375095238 0.7384265195333334 2.1981492435333334
H 1.4778411549095238 -0.6738074343666667 1.2174054571333335
H 2.3838458128095237 0.8333052988333334 1.0646333819333333
H -1.358343520190476 0.7453457982333334 -0.7072151834666667
H -0.3623360554904762 -1.7885817781666664 0.6971316816333333
H -1.8681984720904765 -1.5826139608666665 -0.1741867745666667
H -0.5787815397904762 -1.0567339633666666 -2.2718672867666667
H 0.9279321165095238 -1.3666325777666666 -1.3955348806666665
H 0.1691307176095238 -3.3013817293666667 -2.3921890650666664
