21
117853
O 1.2823793480285715 3.1071728416666664 -0.3221155402333333
C 1.3133160715285714 1.6869247856666667 -0.3025031983333333
C -0.09526562367142843 1.0861100786666666 -0.23567368813333328
C -0.14688565177142854 -0.44663503383333336 -0.2388368761333333
O 0.5454577846285715 -0.9069765792333333 -1.3950614936333334
C 0.5413510485285715 -1.0678323792333335 0.9979973893666667
O -0.08192912147142839 -0.7335365743333335 2.230245492666667
C -1.6100824599714285 -0.9204137253333335 -0.32019134003333327
O -1.6713496577714284 -2.309165583733334 -0.6472990985333333
H 0.8748446097285716 3.3787833662666666 -1.1507058986333334
H 1.8480645538285714 1.2773303703666665 -1.1689951768333333
H 1.8941137232285716 1.4268453104666665 0.5889162174666667
H -0.6099768074714285 1.4728320692666665 0.6523498410666666
H -0.6615410237714285 1.4432343300666666 -1.1058401089333334
H 0.1693339118285715 -1.7779120636333332 -1.5868664569333333
H 0.48302609652857154 -2.1590885460333338 0.9136397995666667
H 1.6080378282285714 -0.8119058764333336 0.9894041970666667
H 0.15866622822857157 0.17010903106666664 2.455283596166667
H -2.1331096883714284 -0.7035721084333335 0.6174485669666667
H -2.114468098571429 -0.3977027278333334 -1.1387457563333332
H -1.5939830714714287 -2.8146009854333336 0.1675495323666667
