19
118373
C -0.2964810118473684 2.4288118964315792 1.369562054
C -0.1535934633473684 0.9115404543315789 1.4247555512
N 0.2669764763526316 0.3884025740315789 0.12420833000000009
C 0.3746192395526316 -1.061570953568421 0.06364925919999997
C 0.5730439400526317 -1.522069916168421 -1.4055365677
C -0.5780893812473684 -1.185447794168421 -2.2325282955
C -1.5406527480473684 -0.888232075768421 -2.8884551856000003
C 1.5184336749526317 -1.5194522292684212 0.8735720423
N 2.4059816702526318 -1.9027529740684213 1.5059278097
H 0.6461036609526316 2.8935965325315793 1.0678575124
H -1.0679939589473684 2.727618906931579 0.6504947603
H -0.5842098097473685 2.8239912752315792 2.3478178595
H 0.6110609185526317 0.637568810031579 2.1610134287
H -1.1003174786473684 0.45623523263157895 1.7699537836
H -0.3954763484473684 0.675455472031579 -0.5914614427
H -0.5186833045473684 -1.5785349976684209 0.46174396149999997
H 1.4759434334526316 -1.041199102568421 -1.7969912168
H 0.7465854971526316 -2.603015454568421 -1.4194305755999999
H -2.3832510064473684 -0.640945656368421 -3.4861530684999997
