21
118414
C 1.7464091042904757 2.7710672431714287 0.11387648649523804
C 1.7982159581904757 1.2529422310714289 0.10403594079523804
O 0.4635250508904758 0.7655189908714288 0.09741115409523804
C 0.35181431619047565 -0.6648392140285713 0.10243446999523804
C 0.3345841736904758 -1.147190765128571 1.5669574795952381
O -0.6649852643095244 -0.4869211423285713 2.3056961772952382
C -0.8622241334095244 -1.0376499684285714 -0.618083299704762
C -1.8563234551095242 -1.378229051428571 -1.204201859704762
C -3.0638402353095247 -1.7784111282285713 -1.9108054059047619
H 2.758856407690476 3.185382194771429 0.09765933369523805
H 1.2032578927904758 3.140622726871429 -0.760165192504762
H 1.2385785197904757 3.134597960371429 1.011908515095238
H 2.3282963178904756 0.8888863968714288 -0.790346553404762
H 2.3494366512904756 0.8831854766714288 0.982231067295238
H 1.2256254849904757 -1.1029086913285713 -0.405831653004762
H 0.12751077319047566 -2.2211765319285712 1.602247439895238
H 1.3355342029904758 -0.9832295537285713 2.000878186995238
H -0.6346860234095242 0.4341346124714288 2.015902837595238
H -2.8429465591095244 -2.509326003128571 -2.6964533892047617
H -3.792537590309524 -2.2302843717285716 -1.2290880692047619
H -3.5441015929095245 -0.9161714117285713 -2.386263666204762
