20
118805
C 1.3618052824000004 2.6788558417 0.227899362595
O 1.3479647874000005 1.2721773112 0.24945028669500002
C 0.08660592470000039 0.7327374038000002 -0.086736801405
C 0.17862572050000036 -0.7753838443999999 -0.014028329304999997
C 1.3077762190000004 -1.3913760615 -0.812955647005
N -0.16305565529999955 -1.3397507619 1.297273935895
C -1.0862908551999997 -1.5649810894999998 0.15510442669500002
C -2.3952550485999997 -0.9731263351999999 0.21644695389500002
C -3.5004032895 -0.4992402037999999 0.23119188069500002
H 2.3712758107000003 3.000704086 0.495291561395
H 1.1145886152000004 3.0754077686 -0.770148275705
H 0.6488922459000004 3.1051629785 0.950910050695
H -0.6905000235999994 1.0882133305000001 0.603404837995
H -0.20247545789999966 1.0399220937 -1.107545805605
H 2.2699131082000004 -1.0342420885999997 -0.436789657405
H 1.2863916558000004 -2.4841258772 -0.748783099405
H 1.2389496152000004 -1.1122972983999997 -1.869931315705
H 0.3703774900000004 -2.189950277 1.467248841395
H -1.0709886343999995 -2.5519689207 -0.304134826205
H -4.4741975105 -0.07673805579999993 0.256831619795
