20
119171
C -0.5406615071900001 2.7296323419 1.4425534220049998
O -0.61405978239 1.3458735456 1.1860099931049999
C 0.30021447080999997 0.9132736823999998 0.20301439470499982
C 0.08829093680999989 -0.5662144234000002 -0.06673923449500019
C -0.34074070929000005 -1.4568809279000003 1.040425066805
N -1.2817538428900002 -1.0883764701 -0.038197191595000124
C 0.98396378581 -1.0945341474 -1.147840070595
C 0.49920290171000004 -2.0169211026 -2.178347220295
O 0.7124944563099999 -0.6341444907000002 -2.477977020395
H 0.4495486220099999 3.0186952817 1.8266659802049998
H -0.74532968439 3.3208876948999997 0.5371676411049998
H -1.2950965593900001 2.9616860828 2.197738305105
H 0.15068114760999995 1.4711023415 -0.7357711750950002
H 1.33882459831 1.0929143819999998 0.5306931236049999
H -0.03554516909000005 -2.4997586743 1.0422758072049998
H -0.48400564539000007 -1.0077062216000003 2.017621079305
H -1.88957395119 -0.3485340171000002 0.30819037680499983
H 2.04691364421 -1.1068532640000002 -0.8971883096950002
H 1.1980236877100001 -2.7074052426999997 -2.648965156895
H -0.5413914000900001 -2.326736371 -2.1413298108950003
