21
120384
C -1.203181462647619 3.0080834186619043 -1.0285698213333334
O -1.113557816547619 1.6043350568619046 -1.0235597048333334
C -0.48618784794761905 1.0989660063619047 0.13843882806666663
C -0.420932655147619 -0.4192682014380953 0.009433602166666555
C 0.467491884652381 -0.9350689397380956 -1.1033941380333334
C 1.124007031852381 -2.0367784322380955 -0.7373064327333334
C 0.780333043452381 -2.4403635463380953 0.6800660633666666
C 0.15336724705238103 -1.1478099246380955 1.2584170407666666
O 1.1270553560523808 -0.3624651362380953 1.9390970382666666
H -0.20963455164761902 3.482672190961905 -0.9860265380333334
H -1.695490989647619 3.3030765076619044 -1.9586872758333334
H -1.795459142747619 3.3831697490619046 -0.17865853443333346
H 0.522006979452381 1.5278154166619047 0.24619350806666662
H -1.052797535147619 1.3835000341619046 1.0406743831666665
H -1.4511316592476189 -0.7645060481380952 -0.16491250103333344
H 0.5084481275523811 -0.4574176895380955 -2.0749093081333334
H 1.7924871465523808 -2.6109751787380953 -1.3692961329333335
H 0.06318401505238103 -3.2733068072380958 0.6877790932666665
H 1.638458379852381 -2.7554461027380954 1.2836584201666668
H -0.616306762847619 -1.3485097798380954 2.0077626010666667
H 1.8678412120523809 -0.23970259353809542 1.3337998089666665
