23
121031
C -1.2038460186565216 3.0752841843043477 0.9305424029826088
C -1.0308322385565216 1.5545599257043479 0.9712900102826088
C -0.3079255690565217 1.001196929904348 -0.26291902611739115
C -0.1474337190565217 -0.520202241695652 -0.2731669176173911
C 0.4860239819434784 -1.070822675895652 -1.5746806425173911
C 0.9338696375434783 -2.494439350495652 -1.217948254817391
C 1.2638561019434784 -2.437584845195652 0.27940609408260886
O 1.8208725977434785 -3.296570032295652 0.9120863859826088
C 0.7585047342434783 -1.0988328005956522 0.8293612625826088
H -0.23414902045652164 3.582959935304348 0.8789275294826088
H -1.7843054669565217 3.3845925317043477 0.05416296118260877
H -1.7238661605565215 3.4423078436043477 1.8207898784826089
H -0.4780900244565216 1.2753399742043479 1.8770463861826088
H -2.015296887756522 1.0754044910043479 1.0570608347826087
H -0.8562055640565216 1.3057611325043479 -1.1653341800173909
H 0.6861028375434783 1.465419016604348 -0.3418381654173911
H -1.1436826191565217 -0.974715539795652 -0.16738964341739127
H -0.20506406815652167 -1.031423471095652 -2.4209748275173912
H 1.3573746084434786 -0.4583159976956521 -1.840184791017391
H 0.11365367134347837 -3.2140540364956522 -1.342233834517391
H 1.7814320743434784 -2.8780509950956517 -1.7909528377173909
H 1.6388650291434785 -0.4561669711956522 0.9799200903826089
H 0.2901420826434784 -1.2316470072956522 1.8070292842826088
