20
121898
C -0.7165764813950002 3.1476905927 1.467281906505
O -0.7985025533950002 1.7478997143000001 1.353600399405
C -0.04997361729500027 1.2430786924000001 0.26851009690500005
C -0.1572382734950002 -0.27614459450000006 0.2824774003050001
C 0.5996821812049997 -0.9103645376999998 -0.8969680994949998
O 1.9515352631049998 -0.5343023017999997 -0.889908080795
C 0.5302677372049998 -2.4469310748 -0.8492079943949997
N -0.6894433745950003 -3.0124346325999998 -1.007989273795
O 1.5506302273049997 -3.0943333779 -0.6765412333949998
H 0.32055866640499975 3.4859901678 1.619834961805
H -1.1120738767950002 3.6559439427 0.5728611105050001
H -1.3152552907950001 3.4425296407 2.332776938805
H -0.4365228464950002 1.6453570232 -0.6856996954950001
H 1.0054651328049997 1.5428270277 0.34314772280500017
H 0.2552460594049998 -0.6579673078999997 1.222851918605
H -1.217729995995 -0.5543563767999997 0.253550590805
H 0.13330747780499974 -0.5765348855999999 -1.839656778195
H 2.434990311305 -1.3684209897 -0.7530711719950001
H -1.5190024058950002 -2.4643750073 -1.1515869487950001
H -0.7693643403950002 -4.0151517149 -0.9662637700950001
