20
122101
N 2.30188552549 1.2683740336 0.34135983940499987
C 2.12988873419 -0.18164649740000005 0.42698362810499985
C 0.6604451338899999 -0.49428391200000005 0.7899846021049999
N -0.21645165760999996 0.05264112799999994 -0.23597647629500018
C -1.6357949032099999 0.11934652269999996 0.11751595080499988
C -2.42618125661 0.5102526497 -1.1298625875950001
O -2.21177939211 -0.40589544750000006 -2.180423269895
C 0.47570291658999997 -1.9487945735 0.9191276072049999
N 0.3491875662899999 -3.0908682949 1.0386123348049998
H 2.44094489949 1.6695158539 1.263457264905
H 3.12412373049 1.4968698498 -0.20516009039500016
H 2.33079736569 -0.6141229209000001 -0.5572865750950002
H 2.78793814799 -0.6795245628000001 1.1524884924049998
H 0.4587660550899999 -0.06254173930000005 1.789710370105
H 0.14561661148999994 0.9822260429 -0.4406051930950001
H -1.95414313061 -0.8782717551000001 0.4405037101049999
H -1.8442823808100002 0.8225333059 0.9429739053049999
H -3.4982988594099997 0.5173563724 -0.9064409154950002
H -2.1482772974100004 1.5380164534 -1.427539154395
H -1.27008780891 -0.6211825089 -2.1394234429950005
