23
122674
C -0.6909953453043477 2.737441215373913 0.9896121402521736
C -0.9778188985043477 1.507461016973913 1.8426369818521735
O 0.20287929569565233 0.7399547058739131 2.0700556381521737
C 0.2690310526956524 -0.5243778438260871 1.4564470981521735
C 0.6867925130956524 -0.5072908715260871 -0.009798215947826261
C 0.9800479713956524 -1.9119770074260871 -0.5909316363478263
C 0.35341458759565236 -1.8727621225260869 -2.0086887653478263
C -0.12442303710434766 -0.414586225326087 -2.1388585890478264
O -0.37157659920434766 0.017610125873912974 -0.8103875549478263
H 0.10986651129565228 3.333806272273913 1.4372511568521738
H -0.3933920687043477 2.439188161473913 -0.01793636194782655
H -1.5861703942043477 3.365403596673913 0.9178641787521735
H -1.3533938773043477 1.812831009173913 2.8288164180521735
H -1.7487002478043476 0.8887610521739131 1.3677721270521737
H 1.0220869339956522 -1.093181083726087 2.0154240428521737
H -0.6891622359043477 -1.062608745326087 1.5384889955521737
H 1.5729710814956523 0.13987404547391313 -0.1125250656478265
H 2.053209182295652 -2.115615155626087 -0.6101448475478266
H 0.5116878423956522 -2.687904547726087 0.02288033475217377
H 1.0627632369956523 -2.144437881026087 -2.794116082947826
H -0.4938060198043477 -2.559893355926087 -2.0760259580478264
H 0.6536902115956523 0.20964948257391303 -2.608089729147826
H -1.0490016967043476 -0.29734584392608676 -2.709746305347826
