23
122876
C -0.7322371443869566 2.6835089320999996 0.8143656992
C -0.5389477514869566 1.1685651731 0.8551477453999999
C 0.22578893111304343 0.7373854771999999 2.1163992395999998
O -1.8493668168869566 0.6015323665 0.8594259088999999
C 0.19509443671304338 0.7023620164 -0.4107135954000001
O 0.19552211591304336 -0.7158772304000001 -0.4260193523
C 0.8999481306130434 -1.2780860682 -1.5204854732
C 0.6654641631130435 -2.7789920822 -1.4933770079
O -0.6964660800869567 -3.1036260235 -1.6906584768
H 0.2301170300130434 3.2034972539 0.7873690835
H -1.3148832203869567 2.97164366 -0.06516019380000004
H -1.2765385110869567 3.0114681016000002 1.7041285593
H -0.3540615859869566 0.9981144246 3.0056355129
H 0.3930791730130434 -0.3432283426 2.1111218966000003
H 1.2015502698130436 1.230952546 2.1796531341
H -1.7313961286869568 -0.3444741643 0.7174479958
H -0.3218746571869566 1.0864711376 -1.3034151361
H 1.2283786670130432 1.0835820151 -0.4205856003999999
H 0.5264353508130434 -0.8598066246 -2.4681771278
H 1.9756291177130434 -1.0509595842000001 -1.4435947947
H 1.2277691236130432 -3.2506212897 -2.3058008813
H 1.0448086725130432 -3.1833280620999997 -0.5412636287000001
H -1.1938132857869568 -2.5700836323000003 -1.0614435069000001
