25
122955
C -1.2872179067960001 3.432678084912 -1.6848289811999997
C -1.143703429796 1.909116495612 -1.6797092377999996
C -0.3965296387960001 1.374454370312 -0.45112007689999967
O -1.036713320896 1.776935604112 0.7619163826000004
C -0.19986548879600008 -0.1457289925880001 -0.5025641855999996
C 0.6110876331039998 -0.697924440188 0.6740667146000003
C 0.744014758204 -2.2227847798880003 0.6503553272000002
C 1.5548819376039997 -2.7657981117880004 1.8193458200000001
O 1.6077217144040001 -4.180325086188001 1.7001400935000004
H -0.3068006134960001 3.919237323112 -1.7359393236999996
H -1.874409813996 3.7740810289119997 -2.5426256530999995
H -1.7779109635960002 3.776157173912 -0.7704167660999997
H -2.137853431996 1.4386938363119999 -1.7145325638999998
H -0.6200151170960001 1.5757099918119999 -2.5844453428999996
H 0.589657125804 1.856577262112 -0.4014129533999997
H -1.918201766396 1.385869775612 0.7648820307000004
H -1.189298408296 -0.6279252511880002 -0.5290835301999997
H 0.289644988404 -0.408994071288 -1.4494063083999997
H 1.6106168806039998 -0.24102607148799993 0.6651594244000005
H 0.13898518000399984 -0.37361802408800027 1.6086160608000002
H -0.24853816429600006 -2.690225745588 0.6718482715000005
H 1.219928319204 -2.550198560188 -0.2826033449999996
H 2.566457652704 -2.3272100377880003 1.8052636743000003
H 1.084470946204 -2.4630989133880004 2.7695086761
H 2.119590928004 -4.524652861088001 2.4375857925
