16
123367
C -1.9690009040312502 -2.2311742429625 0.85377385139375
C -1.31951574823125 -1.8386632746625 -0.07848744870625002
C -0.47902735243125016 -1.3706094248625 -1.18233362340625
N 0.80281991686875 -0.7626833008625 -0.76671454510625
C 0.72351673046875 0.48844911983750006 -0.13360281340625002
C 0.8225024117687498 0.8989473191375001 1.18305887779375
C 0.6958927995687498 2.3036264036375003 1.12564729879375
N 0.5226390278687498 2.7438840084374996 -0.11649980410625002
N 0.5508652532687499 1.6211936486374996 -0.86614368590625
H -2.5558802952312503 -2.5689688771625 1.67200407989375
H -0.24905188083125007 -2.2064381097625 -1.85258345680625
H -1.0240483615312501 -0.6331938413625 -1.78039419140625
H 1.3114488817687497 -1.4132240764625 -0.18018862240625
H 0.9439212700687498 0.26880533933749984 2.04881512279375
H 0.7147186312687499 3.0104289679374996 1.94268603989375
H 0.5081996193687499 1.6896203411374997 -1.8690370793062498
