16
123342
C -0.8636812583 -3.65653103375 0.016376939849999984
C -0.893637707 -2.45560704055 0.05441344494999999
C -0.8884185465 -0.9992133188499999 0.09253845114999998
C 0.5284273571000001 -0.4039031732499998 -0.11757659835000002
C 0.5385022402 1.09266772935 -0.06400268495000003
C 0.6487871954000001 1.98967987225 -1.08076561645
O 0.5957063214000001 3.24891379635 -0.6229717452500001
N 0.4427411592 3.2178408101500002 0.75875425675
C 0.41024275630000007 1.9475091961500004 1.07249094325
H -0.853862844 -4.71786024445 -0.014095207050000018
H -1.5613917736 -0.6023091920499999 -0.6771944577500001
H -1.2896576014 -0.6523772189499999 1.05295809845
H 1.19637343 -0.81483368215 0.64686346805
H 0.9143799874999999 -0.74541724465 -1.0825318689499999
H 0.7742317746999999 1.88195154795 -2.1474723506499998
H 0.3012575089999999 1.6694891964499998 2.11221492695
