17
123876
C -1.651016712376471 1.6884236253588234 0.24968694071764708
C -0.10895712267647095 1.6835934349588235 0.06251175701764708
N -0.09809662807647102 0.2745101248588235 0.4960582631176471
C -1.565522008376471 0.14816035985882348 0.4208637032176471
C 0.7989665832235291 -0.6397823823411766 0.025725981417647092
N 1.9782339886235292 -0.3678423772411765 -0.5128929112823529
C 2.479643204123529 -1.6123360903411765 -0.7661604863823529
N 1.7081667064235289 -2.6272588124411764 -0.4365681963823529
N 0.6120191334235292 -1.9810282426411767 0.07579518521764708
H -1.980641422976471 2.2063170096588234 1.151148950217647
H -2.234939694576471 2.0398738820588234 -0.6004199690823528
H 0.223623052823529 1.8091618565588234 -0.9738494487823529
H 0.47375586852352924 2.3498941967588234 0.7037223429176471
H -2.029213360676471 -0.27630460604117657 1.317644092417647
H -1.9055047611764708 -0.4173014396411765 -0.45787451058235284
H 3.4498731562235294 -1.7665631010411766 -1.215273510782353
H -0.15038998247647095 -2.5115174383411767 0.4598818170176471
