13
124335
C -0.025535483776923083 1.6438460167615383 0.9876281784461538
C -0.018899080676923082 0.1337131361615384 1.0951475799461539
O -0.032064302776923084 -0.4728738356384616 2.127500715146154
N 0.005425744823076916 -0.5512415101384616 -0.15662387715384618
C 0.024232747723076917 -0.0134797395384616 -1.426913890653846
N 0.04456190232307692 -0.8974099947384617 -2.3569654064538463
O 0.03956235742307691 -2.1408668523384615 -1.6901387135538464
C 0.015546333723076917 -1.9629092176384617 -0.3281060135538463
O 0.0063738101230769156 -2.8378313322384616 0.47506908894615385
H 0.868068223623077 2.0077932020615386 0.4703802738461538
H -0.9039195851769231 1.9980775806615383 0.4386081145461538
H -0.04575888637692308 2.0483375654615386 1.9985271696461537
H 0.022406219023076917 1.0448449811615383 -1.6341132191538463
