18
124638
C -0.07787232939999998 1.6017335367666667 -0.9222310445166664
C -0.08425407039999998 0.07159201936666669 -1.0466487312166664
C 0.6244965792 -0.4061781991333333 -2.3144120646166666
N 0.5303680235 -0.5916985048333333 0.10850885038333358
C -0.09410742029999998 -0.6085979806333334 1.3217685212833337
N 0.5244998110000001 -0.8832917848333334 2.472991809583334
N -0.5108820103999999 -0.8354208437333334 3.3167360191833337
N -1.6701783962 -0.5514622263333333 2.7667114293833333
N -1.4328486719 -0.3983394098333333 1.4854576533833337
H 0.9482417988000001 1.9862609953666668 -0.8870757491166663
H -0.5812506692 2.0607131562666665 -1.7793100166166664
H -0.5987836507 1.9170498576666668 -0.014520989916666283
H -1.1239227904 -0.2687671260333333 -1.0704490706166663
H 1.6793436858 -0.10392056563333331 -2.311044155316666
H 0.5820672685 -1.4951611015333333 -2.399827925216666
H 0.16001237840000004 0.033085441966666684 -3.2014746507166665
H 1.5364395332 -0.5257372442333333 0.16874688958333373
H -0.4113690695 -1.0018600206333332 4.306073225083334
