17
124736
C 0.3075555957 1.1794676486 -0.6731985439
C 0.1713592342 -0.1128223829 0.1385239853
N 0.4779989349 0.0164965034 1.5763671274
H 1.4708345478 0.1881628634 1.7013187529
H -0.0024663713 0.8303905694 1.9534627206
H -1.2247187341 -1.7291783444 1.8075004127
C -1.2003925233 -0.7244316755 0.0231378957
N -1.4727797075 -1.8127406749 0.8261477767
O -2.8310601685 -2.12901657 0.6839216811
C -3.3501215813 -1.3322960022 -0.3592931962
O -4.4800993355 -1.4841786811 -0.7320539498
C -2.2696820426 -0.4445161258 -0.7541884325
H 1.3204896324 1.5793655208 -0.5704291939
H 0.1188694985 1.0060801988 -1.737180951
H -0.3992878842 1.9382617595 -0.3212562025
H 0.8808026708 -0.852162149 -0.2557737136
H -2.3556734859 0.2880278218 -1.5378062888
