16
124832
C 0.6504782647437499 2.2088280650625 0.12712881148125002
C 0.6800598333437499 0.6995023401624999 -0.10653816091874997
O 1.4633116205437497 0.023481883062499875 0.86260099428125
C -0.7510470024562501 0.11479963246249991 -0.18807142191874998
C -0.7491838596562501 -1.3688757205375004 -0.30303849321875
N -0.7909718386562501 -2.0451394071375004 -1.4150205960187499
O -0.7398436761562501 -3.3428040940375 -1.03318522901875
N -0.6727359191562501 -3.3990496564375 0.35683478278125
N -0.6778978591562501 -2.2208336632375003 0.78976828028125
H 1.6706135727437499 2.5970562050624997 0.17871675698125003
H 0.12015820464374993 2.7273031131625 -0.6782289655187499
H 0.14471344224374993 2.4471295326624998 1.07092860148125
H 1.18367692754375 0.4885711936624999 -1.05699392021875
H 1.05104908824375 0.13697978316249992 1.72678195468125
H -1.30818077775625 0.3894878538624999 0.7152663731812501
H -1.27420002105625 0.5435629390624999 -1.04694976831875
