16
125255
C 1.24620823645 2.7390574729 -0.0018921471187499993
C 1.01959766495 1.2700056434000002 0.05040779628125
C -0.09659894535000002 0.4982168388000001 -0.03801809201875
C 0.41447284845 -0.8244261248999998 0.09168426718125
N -0.25544824605000005 -2.0360743675999995 0.07817386548125001
C -1.60507290945 -2.2494916068999995 -0.06567230771875
N -2.45993392055 -1.3168099753999998 -0.21335579031875
N 1.72294669815 -0.8449292825999997 0.24462608608125
O 2.10718253805 0.4950516292000001 0.21789670718125
H 1.91255433085 3.0034031628 -0.82954710781875
H 0.29705708565 3.2599959598000003 -0.13883273791875
H 1.7112743995500002 3.096900101 0.92251826488125
H -1.12277371255 0.7841800055000001 -0.17217104651875
H 0.33681875985 -2.8438309273 0.18949177208125
H -1.8349201649499998 -3.3207466595999993 -0.03543824891875
H -3.39336466305 -1.7105018691 -0.29987128081875003
