17
125304
C -0.0346681047117647 2.4957886745352944 -0.4696676005882352
C -0.0224132190117647 1.0028353824352942 -0.5415516749882352
C -0.0411880938117647 0.21657391913529422 -1.638408807288235
C -0.0191769475117647 -1.272520051264706 -1.3070320808882352
C 0.0162758404882353 -1.2365523802647056 0.19253853991176473
C 0.0507933975882353 -1.9652290246647057 1.3533755451117648
N 0.0661323367882353 -1.0416599353647058 2.364685231911765
N 0.0439166330882353 0.24701665523529426 1.9392581106117648
C 0.0137398076882353 0.11159959903529426 0.6197922929117649
H 0.8536596659882353 2.868980629135294 0.05290244701176472
H -0.0646850994117647 2.944800167435294 -1.4657639372882354
H -0.9015918274117647 2.8523593161352943 0.09843056541176476
H -0.0690525066117647 0.5782447255352943 -2.659650463588235
H -0.9021535320117647 -1.7865080507647058 -1.709598956688235
H 0.8532016473882352 -1.7698365300647056 -1.751477128388235
H 0.0659004950882353 -3.0221668081647057 1.5689446539117649
H 0.0913095063882353 -1.223726288064706 3.353223262911765
