14
125368
C -0.024544335192857147 2.076722608314286 -0.1980976781571428
C -0.014907715392857145 0.5951799813142857 -0.3122160176571428
C -0.03908051979285715 -0.2424762316857143 -1.3875981933571426
N -0.013819919692857145 -1.5703362095857143 -0.9537128092571427
C 0.026273990707142855 -1.5545343851857143 0.40612971984285723
N 0.06471803150714286 -2.3476447689857145 1.4620758473428572
N 0.08737509380714287 -1.4773807982857146 2.5103098445428573
N 0.06581430250714286 -0.22575768238571425 2.1509623105428575
N 0.025806397707142853 -0.2592445941857143 0.7908904141428572
H 0.8736075245071429 2.4408189985142856 0.31223474504285725
H -0.06587562209285715 2.530433703514286 -1.1905625217571427
H -0.8889815491928572 2.4237461706142858 0.37798615284285725
H -0.07263151319285714 0.00116038641428573 -2.436361658457143
H -0.023754166192857147 -2.3906871783857144 -1.5320401556571428
