19
125993
C -2.1883877315210527 1.3929234067105263 -0.2346946689263158
C -1.2391085134210529 0.2006027875105263 -0.15455194402631578
C -0.1963840721210528 0.1477071390105263 -1.3054106850263159
N 0.9220488034789474 -0.5050770455894737 -0.6538597148263158
N 2.045719036178947 -1.0232378182894737 -1.1699302824263158
C 2.733413192978947 -1.3970933352894737 -0.08561300352631579
C 2.050927671478947 -1.1057433535894736 1.1193851408736841
C 0.872315545178947 -0.5201314491894737 0.6986190243736842
C -0.3918076477210528 0.1381843140105263 1.1580891403736842
H -1.6369012771210527 2.3384196726105264 -0.18410164392631578
H -2.7593641876210526 1.3871434267105265 -1.1690476766263158
H -2.9054227688210528 1.3789064655105263 0.5922068329736843
H -1.8243448550210528 -0.7245230131894738 -0.2073508987263158
H -0.5372579765210528 -0.4249440450894737 -2.171339878726316
H 0.08842001917894726 1.1513511356105264 -1.6479701053263158
H 3.6965274116789466 -1.8722291189894738 -0.20587445512631578
H 2.3730454157789476 -1.3028396166894736 2.1286580910736843
H -0.19406417332105286 1.1485116977105263 1.5411163740736842
H -0.9093738927210528 -0.4079312494894737 1.9516703534736841
