19
128461
C 0.10310956703157892 2.7294210142157898 0.1407009000315789
O 0.4242167097315789 1.3890262862157896 0.44107279393157894
C -0.211998175168421 0.4224162523157897 -0.3911412119684211
C 0.4699828915315789 0.29688209721578973 -1.7573842489684213
C -0.18938710346842114 -0.8725165514842104 0.37243761143157894
C -0.481474061568421 -2.17913193778421 0.024367797431578908
C -0.29290587796842105 -2.91395760358421 1.214013254531579
N 0.09027027283157896 -2.1375382351842105 2.224690377831579
N 0.13717940153157893 -0.9054377429842102 1.685832064031579
H 0.5890377013315788 3.3508073254157895 0.896585219831579
H 0.46782591163157894 3.03687829061579 -0.8490466919684211
H -0.982938449268421 2.90389991141579 0.18050357523157892
H -1.260944793568421 0.7296092662157898 -0.545192158068421
H 0.41659828823157896 1.2376065288157898 -2.312455220568421
H 1.5191932523315788 0.01907800231578971 -1.628139639068421
H -0.022649429068421156 -0.4733449075842102 -2.357500832368421
H -0.7911636204684211 -2.5457772768842104 -0.9407939195684211
H -0.4180790345684211 -3.9752551564842102 1.3722061458315788
H 0.43412654893157887 -0.11266556278421036 2.229244182431579
