15
128723
C -1.174725653893333 2.3137920407333334 2.1457877171666664
O -1.2156554867933331 0.8950381767333334 1.9007241507666666
C -0.5388009718933331 0.4915424798333333 0.8532037810666666
N 0.14969295200666677 1.2021760172333333 0.03221875366666649
O 0.6472283638066669 0.22564948333333334 -0.8944730907333334
C 0.20348463720666676 -1.0094560794666665 -0.5128864915333335
O -0.5769480653933331 -0.8309906301666667 0.6194228790666665
N 0.40812579980666697 -2.129240224366667 -1.0157963373333336
C 1.2429243742066667 -2.2387029952666664 -2.2021357919333338
H -0.14468639379333315 2.6358561182333333 2.3175566990666665
H -1.588067934393333 2.8548718882333333 1.2910653528666667
H -1.7829646282933331 2.4707528495333335 3.0348105170666666
H 0.6116448946066668 -2.4206751567666664 -3.079657922433334
H 1.859427477106667 -1.3538528190666665 -2.3987876251333335
H 1.899320635706667 -3.106761148766667 -2.0910525916333333
