12
129058
N -0.147158469 1.2444764122 0.0400672859
C -0.0083971448 -0.0180645434 0.051224863
C -1.202906345 -0.8808092726 -0.1131858066
N -1.4027386157 -2.0175020118 0.4284454174
C -0.476252154 -2.5741741798 1.29065329
N 0.804417535 -2.6464907009 1.2689012395
O 1.4812277244 -2.006102418 0.1856849758
C 1.3745230691 -0.6604760833 -0.004925623
O 2.3288816195 -0.0236480516 -0.3431474961
H 0.7779381275 1.6876172726 0.0927358549
H -1.9771050272 -0.4797903457 -0.7678955257
H -0.9072380897 -3.1256721378 2.1242418248
