14
129501
N 1.167667273635714 2.2558572592785717 -0.22207996691428572
C 1.4032223122357141 0.9162327464785716 -0.1182770889142857
O 2.489404060335714 0.39365421467857153 -0.1260523411142857
N 0.19796477293571413 0.16723112237857152 -0.023430977214285713
N -1.027910442464286 0.8278619659785715 0.04517498038571428
C -1.9067559113642858 -0.11009674232142841 0.12868505298571428
N -1.344796053164286 -1.3561039431214286 0.11929947808571428
C 0.05546975363571427 -1.2320185061214284 0.018378516585714284
N 0.9674335454357141 -2.1122067889214287 -0.028141659914285716
H 1.9729828572357142 2.8496324327785714 -0.1303640279142857
H 0.2468007149357141 2.6220537717785715 -0.050572214414285714
H -2.9694524662642863 0.0639920008785716 0.1999597028857143
H -1.8251678578642858 -2.2366089665214286 0.1692914110857143
H 0.5731374407357142 -3.0494805672214285 0.018129134385714285
