14
129557
N 0.2591842535 1.2459139581 0.4463900624
C -0.1040455121 -0.1050352577 -0.0095271609
C -1.5720247307 -0.2005964376 -0.0826670775
N -2.7221898786 -0.267492029 -0.1554856825
C 0.4985943203 -0.5395310244 -1.3231879273
C 0.0710421779 -0.4740064591 -2.6297596015
N 1.0624836125 -0.9331494462 -3.4436831477
N 2.083798109 -1.2828270688 -2.7189718057
N 1.7532447624 -1.0474809322 -1.43350153
H 1.2668953479 1.3005766274 0.563054888
H 0.012901762 1.922372439 -0.2713806059
H 0.2180919136 -0.8016555014 0.7758852855
H -0.8786836282 -0.1419672845 -3.0165003102
H 2.4140905605 -1.2814852135 -0.7086329566
