11
130828
O -1.0725234113272728 -3.212236158954546 -0.007766534772727273
C -1.0371674196272729 -2.013971348654546 -0.001205405372727274
C 0.3210447146727271 -1.2664638798545456 -0.010454844772727274
O 1.3656859593727273 -1.8608082982545457 -0.024299351372727273
C 0.25992233117272723 0.22637979744545422 -0.0013217308727272743
N -0.8856517734272729 0.8677988458454546 0.014021707827272726
O -0.5138312470272728 2.2016108348454546 0.017689776027272723
C 0.8283306696727273 2.214133347245454 0.0044115095272727264
N 1.3708121834727274 1.0425098322454547 -0.007700459872727274
H -1.9445916816272728 -1.3806021875545456 0.011513328627272725
H 1.3079696746727272 3.1816492156454546 0.005112005027272727
