16
130970
O -2.8017602910937494 -2.59678145015 1.2641268178875
C -2.3024028056937493 -1.7991656035499999 0.5168506881875001
C -1.0289144397937495 -1.0239676739499997 0.8220117614875001
N -0.2847841115937495 -0.7452059368499997 -0.4064863382124999
C 0.5727044357062505 0.3619754450500001 -0.42115979891249977
C 1.9468375561062503 0.48130566745000003 -0.5137373437124999
C 2.1794393633062503 1.87456744715 -0.5322285927124999
N 1.0553090533062504 2.57534865795 -0.4483655969124998
N 0.08659457640625057 1.6314978677499998 -0.38984551501249975
H -2.7452140037937496 -1.55017072905 -0.4739910009124999
H -1.3384115785937496 -0.06767485184999966 1.2630511842875
H -0.45504116749374957 -1.5584002613499999 1.5917541382875
H 0.20143115620625052 -1.56853928215 -0.7363605824124999
H 2.6667547528062503 -0.32047458605 -0.5431587627124999
H 3.12618847300625 2.3917241635499997 -0.5919206669124999
H -0.8787309687937495 1.9139611260499998 -0.4005403917124999
