13
131227
O 0.029305008753846153 2.7397480083923074 0.061027065353846194
C 0.018130001153846158 1.4025064071923075 -0.14389384704615382
C 0.03075728365384616 0.6261108940923075 -1.273557127346154
C 0.006722574453846157 -0.7296434473076927 -0.7874367971461538
C -0.018446051246153845 -0.6767352825076924 0.5960173367538462
N -0.04025153644615384 -1.9564938089076926 1.0095552410538462
N -0.028908917746153843 -2.7836864156076926 -0.09862524294615382
N -0.0007057461461538461 -2.0395367483076923 -1.1657701323461538
N -0.012294898346153847 0.6248285034923075 1.0153578753538461
H 0.04803633025384616 3.1808733532923075 -0.7941205052461539
H 0.05369088045384616 0.9805381743923074 -2.2910013590461538
H -0.06204043354615384 -2.3688547641076925 1.925751717453846
H -0.023994495246153845 1.0003451258923075 1.946695775153846
