12
131935
N 0.0418833914 1.3080995018 0.1427830495
C -0.0681790561 -0.0445303867 0.0461927565
N -1.1462273321 -0.7669504349 0.0296758362
C -0.6489126668 -2.0510906782 0.0020576029
C 0.703094232 -2.0625144754 -0.0047190276
O 1.0978883576 -0.7507128723 0.0253365239
N -1.4954002111 -3.220087328 -0.02394702
O -2.7033609768 -3.0539911159 -0.0180837772
O -0.914189547 -4.3034755719 -0.0509591456
H 0.8889459024 1.7138261681 -0.2238494889
H -0.8042261114 1.8102194459 -0.0778381981
H 1.4628781476 -2.8206569426 -0.0300305615
