11
131974
N 0.7037117239636362 1.6800218430545455 0.00503257920909091
C 1.0314620350636363 0.37249089665454543 -0.003869984390909091
C -0.11565863233636375 -0.5863675230454546 -0.002393224990909091
N 0.21187902316363627 -1.8663916943454546 -0.011146619290909092
N 0.5147114767636363 -2.9458923545454545 -0.018069720290909093
O 2.1624136790636364 -0.07989882854545455 -0.01274401949090909
N -1.525594266036364 -0.35962321934545455 0.006648216409090909
O -1.9105258352363639 0.8125493820545455 0.01466124270909091
O -2.263492276736364 -1.3396262203454545 0.005266636409090909
H 1.4554125789636363 2.3489654950545455 0.00444067030909091
H -0.26431950663636383 1.9637722233545454 0.01217422340909091
