16
133784
C 0.786937245175 2.7862561881687498 0.00722165229374999
C 0.8010352050749999 1.25683937146875 -0.0011520234062500105
C -0.6237197252250001 0.66309791276875 0.00988289899374999
C -0.6352136888250001 -0.7927061733312502 0.002288110293749989
C -0.6178952301250001 -1.99439780023125 -0.004508975306250011
C -0.602546962325 -3.4510597204312496 -0.01278458930625001
F -1.845066294825 -3.95700946133125 -0.0043010874062500105
F 0.017339940874999904 -3.9307853304312497 -1.10176665730625
F 0.0368287679749999 -3.94277550853125 1.05946990979375
H 1.804838104675 3.18629950866875 -0.0008096432062500106
H 0.26526640167499993 3.1846906499687497 -0.86986397200625
H 0.28296404497499994 3.17517038206875 0.89880858019375
H 1.330890695975 0.88765318866875 -0.88586062310625
H 1.348421865275 0.8782150429687501 0.86876717479375
H -1.1663073501249999 1.02056609086875 0.89480457819375
H -1.1837730202249999 1.02994565866875 -0.86019533350625
