15
Properties=species:S:1:pos:R:3 000251=T pbc="F F F"
C       -0.24497323      -1.64283785       0.32063280
C       -0.29525731      -0.11105867       0.29028542
C       -1.06817679       0.40517882      -0.92834512
C        1.14542402       0.45589298       0.32962284
C        1.18919562       1.91341752       0.42617250
N        1.20425950       3.06637257       0.50632685
H       -1.25533013      -2.06243953       0.32688129
H        0.27762519      -2.01242415       1.20908931
H        0.27212938      -2.03674734      -0.56233748
H       -0.80556641       0.23769555       1.19680361
H       -2.09516889       0.02772873      -0.92215648
H       -0.59653530       0.07139372      -1.86043860
H       -1.10962564       1.49806696      -0.94384679
H        1.69060062       0.15062032      -0.57246511
H        1.69139938       0.03914037       1.18377496
