18
Properties=species:S:1:pos:R:3 000276=T pbc="F F F"
C        0.35769288      -2.47652049      -1.08756770
C        0.53925685      -0.97061364      -0.98177299
O       -0.28951442      -0.49714724       0.05943452
C       -0.34349416       0.91718698       0.20263864
C        0.92856591       1.47939953       0.84630274
C       -1.58498140       1.21747528       1.03620772
H       -0.68601038      -2.72291503      -1.30237693
H        0.63630678      -2.96220938      -0.14795014
H        0.98473601      -2.88235588      -1.88727715
H        0.26801081      -0.48223675      -1.93362546
H        1.59759017      -0.73268789      -0.79009877
H       -0.46495776       1.37025379      -0.79687969
H        0.84874006       2.56473337       0.96533658
H        1.81600882       1.27802199       0.23966570
H        1.07971510       1.03316604       1.83470922
H       -2.47631542       0.80780007       0.55392615
H       -1.71758666       2.29620961       1.16159335
H       -1.49376319       0.76243964       2.02773422
