12
Properties=species:S:1:pos:R:3 000877=T pbc="F F F"
N        0.06667266      -2.14741440      -0.20417768
C        0.20895935      -0.75354109      -0.05748213
C        1.25774161       0.11610872       0.03366195
N        0.81027343       1.43106031       0.09691076
C       -0.48921653       1.33606367       0.05223279
O       -1.37542916       2.34797988       0.09843711
N       -0.92904243       0.05701409      -0.04279917
H        0.03206774      -2.63186392       0.68831831
H        0.83557816      -2.53712052      -0.73560090
H        2.31127212      -0.11771329       0.05558750
H       -0.85067728       3.15525036       0.17146613
H       -1.87819966      -0.25582380      -0.15655468
