17
Properties=species:S:1:pos:R:3 001719=T pbc="F F F"
C        0.02387349      -1.61851860      -0.13077069
C       -0.11190969      -0.10180050      -0.10783521
C        1.22476614       0.58847298       0.13888260
O        1.70169014       0.18164786       1.41343536
C       -1.24136605       0.49754477       0.76719850
O       -1.76248579       1.25196284      -0.34897102
C       -0.89218888       0.56379119      -1.26769241
H       -0.94813741      -2.10000272      -0.27588587
H        0.45383640      -1.97911537       0.80739712
H        0.68342851      -1.93951645      -0.94574320
H        1.08159355       1.67953828       0.09810534
H        1.93385851       0.31446224      -0.66032701
H        2.52376400       0.64633253       1.59335963
H       -0.92724889       1.13980886       1.59673827
H       -1.96826553      -0.23863481       1.13622892
H       -1.44115970      -0.14401691      -1.90458044
H       -0.33404879       1.25804380      -1.90953989
