15
Properties=species:S:1:pos:R:3 003372=T pbc="F F F"
O       -1.36223767      -1.44076248      -0.74971166
C       -1.35957381      -0.05021846      -0.76784531
C       -0.04642741       0.72447313      -0.77293679
C        1.21007087      -0.07640459      -0.43365202
C        1.10255149      -0.24864752       1.09443134
O       -0.30032903      -0.17398692       1.40731598
C       -0.91012839       0.68223682       0.46637793
H       -1.17769646      -1.69019979       0.16752242
H       -2.17920410       0.36558182      -1.34759859
H        0.03176625       1.61959366      -1.37826043
H        2.11971059       0.45682086      -0.71899126
H        1.20315125      -1.04557351      -0.94134876
H        1.63564935       0.55627173       1.61996464
H        1.46946493      -1.21010364       1.46361220
H       -1.43676785       1.53091888       0.89112031
