13
Properties=species:S:1:pos:R:3 004690=T pbc="F F F"
N        0.15917594      -2.58801135      -0.18973631
C        0.37179835      -1.22872618      -0.07397427
C        1.50213335      -0.45586196      -0.03093039
C        1.04094766       0.89233685      -0.00035371
C       -0.32486490       0.86087678      -0.02348144
O       -0.73854204      -0.46720238      -0.07033404
C       -1.31255445       1.85268759      -0.00543088
C       -2.15615932       2.71473676       0.01065098
H       -0.73121024      -2.88760587       0.18459151
H        0.92129274      -3.14991719       0.16069501
H        2.52177994      -0.80503835      -0.02486552
H        1.64272760       1.78658328       0.03820004
H       -2.89652463       3.47514202       0.02496903
