16
Properties=species:S:1:pos:R:3 005545=T pbc="F F F"
C        1.09960764      -1.69852032      -1.29187174
O       -0.18745575      -1.07198028      -1.26885549
C       -0.40945232      -0.29352476      -0.17591555
C       -0.03483152       1.00519461       0.08452093
N        0.78503884       1.80606591      -0.74246532
C       -0.56222776       1.33332808       1.36850063
C       -1.23825104       0.23009351       1.84079860
N       -1.12995296      -0.76449206       0.90497864
H        1.21756442      -2.38938630      -0.44769096
H        1.90050017      -0.95152342      -1.25427791
H        1.15970770      -2.25667452      -2.22915057
H        0.65615613       1.56364851      -1.71876231
H        0.57067178       2.79018480      -0.63390389
H       -0.44872751       2.27545040       1.88360265
H       -1.78937566       0.07984896       2.75438385
H       -1.58897216      -1.65771312       0.92610846
