22
Properties=species:S:1:pos:R:3 006290=T pbc="F F F"
C        0.20694829      -1.65390207       1.23440316
C        0.04536058      -0.12839513       1.19027400
C       -0.75760628       0.36667671       2.40185186
C       -0.62543536       0.35342119      -0.11122538
C        0.11334208       0.01877827      -1.42837557
C        1.52102214       0.63431258      -1.50485939
C       -0.72341903       0.54745420      -2.57728752
O       -1.29839708      -0.12701277      -3.39158701
H       -0.76582626      -2.15192821       1.14240071
H        0.65263921      -1.97027581       2.18304192
H        0.84784294      -2.02650450       0.42984305
H        1.04438273       0.32306048       1.25184983
H       -1.77071870      -0.05286377       2.39920548
H       -0.84949284       1.45793839       2.40289835
H       -0.27834427       0.06907603       3.34016872
H       -0.76001913       1.44285343      -0.05391133
H       -1.63497178      -0.07719585      -0.16031948
H        0.16962897      -1.06617804      -1.55999183
H        1.99787183       0.40806444      -2.46359003
H        2.16662705       0.24494430      -0.71381194
H        1.48099248       1.72441667      -1.39649511
H       -0.78242758       1.66325942      -2.61448248
