15
Properties=species:S:1:pos:R:3 006732=T pbc="F F F"
N       -0.44576631      -3.29338918      -0.41421002
C       -0.74952826      -2.02375297      -0.00733988
O       -1.88215590      -1.60202791       0.04667650
C        0.48041431      -1.21307966       0.45165097
C        0.30552496       0.22437649       0.33300648
C        0.18044487       1.41506121       0.22505757
C       -0.00953825       2.85449346       0.10935190
O        0.96231849       3.39772449      -0.77803943
H       -1.19976021      -3.86220954      -0.76423277
H        0.49665207      -3.58057694      -0.61192658
H        1.37329773      -1.52919283      -0.10247482
H        0.66373484      -1.48966408       1.49948521
H        0.06721968       3.31099039       1.10986250
H       -1.03253102       3.04891886      -0.25135436
H        0.78967298       4.34232820      -0.84551327
