16
Properties=species:S:1:pos:R:3 006069=T pbc="F F F"
C        0.38247778      -2.58357666      -1.03064968
C        0.12699685      -1.09385021      -0.92491582
O        0.57280660      -0.28808546      -1.70236823
C       -0.74371905      -0.66584628       0.26052092
O       -0.87922657       0.74277359       0.33467727
C        0.20094683       1.40034124       0.83244483
C        0.00930726       2.88966180       0.71921031
O        1.15984857       0.83943359       1.29514262
H       -0.54079813      -3.15913982      -0.90454378
H        1.06585683      -2.89009830      -0.22992229
H        0.83796017      -2.81223042      -1.99463491
H       -0.31966563      -1.06989293       1.18585257
H       -1.75434112      -1.06652616       0.13161461
H        0.78651435       3.40112269       1.28563304
H       -0.98139957       3.17997031       1.07683859
H        0.07643484       3.17594303      -0.33490006
