17
Properties=species:S:1:pos:R:3 007172=T pbc="F F F"
C        0.67195957      -2.56455717       1.07126386
O        0.64784567      -1.15437198       1.02298438
C        0.13445273      -0.63792068      -0.18604578
C        0.05343200       0.87641179       0.00037172
O       -0.73036701       1.18886373       1.13058505
C       -0.60154484       1.54979204      -1.21301444
C       -0.55483919       3.00828608      -1.14029486
N       -0.50590891       4.16161612      -1.10165506
H       -0.33636731      -2.99051783       0.95859245
H        1.07288016      -2.84937049       2.04639318
H        1.31619505      -2.98373195       0.28417849
H       -0.87056783      -1.04642593      -0.38532951
H        0.78736189      -0.89764004      -1.03549227
H        1.07874904       1.26195092       0.11538406
H       -0.41460144       0.61458450       1.83941278
H       -1.64809063       1.23168485      -1.27328573
H       -0.10058896       1.23134603      -2.13404831
