19
Properties=species:S:1:pos:R:3 007177=T pbc="F F F"
C       -0.11239864      -2.05396256      -0.21438663
C       -0.12710842      -0.52939720      -0.28967305
C        1.27193874       0.07893263      -0.32393445
C        1.27763761       1.59973784      -0.50238314
O        2.59242996       2.12613943      -0.59034868
O       -0.78747503       0.01267283       0.87103855
C       -2.12960587       0.09598253       0.83716941
N       -2.77148840       0.43979932       1.86872684
H       -1.12994281      -2.45460026      -0.17649017
H        0.41781825      -2.38468923       0.68363599
H        0.38789608      -2.47617525      -1.09123323
H       -0.68307629      -0.21033214      -1.18469961
H        1.83804299      -0.37631444      -1.14384514
H        1.78747104      -0.18425893       0.60917999
H        0.70376275       2.07313485       0.30540767
H        0.78965001       1.86466932      -1.44791173
H        3.00064765       2.04230334       0.27710055
H       -2.55933269      -0.14215533      -0.14683211
H       -3.76686694       0.47851323       1.65947892
