18
Properties=species:S:1:pos:R:3 007535=T pbc="F F F"
C        0.34335519      -1.80299039       1.73209805
C        0.45148920      -0.38783121       1.22605721
O       -0.75786640       0.37780372       1.13057369
C       -0.03185320       0.09919342      -0.08169332
C       -0.72689264      -0.80050919      -1.08093749
C        0.63105406       1.33228938      -0.68782721
C       -0.39366221       2.30678104      -1.23719763
O       -0.36833524       2.77519798      -2.34637861
H       -0.48871906      -2.34206059       1.27647310
H        0.18876249      -1.79964280       2.81616381
H        1.27002565      -2.35061604       1.52896082
H        1.28115590       0.17267078       1.66468312
H       -1.25727183      -1.61565085      -0.58809782
H       -0.00213025      -1.22530246      -1.78371425
H       -1.45704266      -0.23079019      -1.66584614
H        1.32675828       1.06290992      -1.48808804
H        1.18770967       1.85659303       0.09941256
H       -1.19653696       2.57195444      -0.51464186
