18
Properties=species:S:1:pos:R:3 007636=T pbc="F F F"
C       -1.16564697      -1.86238968      -0.06689774
C       -1.05278663      -0.34323379      -0.19818336
O       -1.81129891       0.14247263      -1.30250036
C        0.39468157       0.13544043      -0.27801674
C        1.24651391       0.06213688       1.03090094
C        1.60712861       1.54308508       0.81462683
O        2.41150860       2.27672280       1.31001510
C        0.60528912       1.68035997      -0.34045717
H       -2.21590556      -2.16131780      -0.01622347
H       -0.65648085      -2.22654398       0.83104519
H       -0.70916740      -2.35962278      -0.93226176
H       -1.52246563       0.12754464       0.67633467
H       -1.47825310      -0.28630573      -2.09890654
H        0.90079822      -0.37075296      -1.10832369
H        2.08876688      -0.63338331       1.06304391
H        0.64413893      -0.08269398       1.93564074
H       -0.28819793       2.24721129      -0.05658050
H        1.00137715       2.11127028      -1.26325603
