18
Properties=species:S:1:pos:R:3 009523=T pbc="F F F"
C        0.35440436      -1.73615066      -1.32978528
C        0.65543017      -0.26526126      -1.02355625
C        0.03633120       0.22676079       0.28960895
C        0.58323844      -0.44727598       1.54168322
O       -1.42778214       0.16730594       0.24290999
C       -1.59706522       1.59499752       0.30663117
C       -0.07605837       1.76054933       0.38200832
O        0.69319547       2.66787197       0.47446476
H       -0.72421165      -1.91572507      -1.31360881
H        0.82360686      -2.41021432      -0.60714218
H        0.73007054      -2.00374857      -2.32166665
H        0.27127621       0.35816918      -1.83959632
H        1.73672069      -0.08889982      -0.97892345
H        0.37617029      -1.52046361       1.52085061
H        0.12009103      -0.03124911       2.44048930
H        1.66538733      -0.29997589       1.60945992
H       -2.14992052       1.92598545       1.19515995
H       -2.07088470       2.01732411      -0.58898723
