18
Properties=species:S:1:pos:R:3 009070=T pbc="F F F"
C        0.56146716      -1.57441551      -0.99727744
C        0.32691394      -0.05045836      -0.96956114
C       -0.37248887       0.42772437       0.32682409
C        0.45422833       0.19279328       1.60240600
C       -0.17774778       0.86802140       2.79961624
O       -0.48663821       0.31433611       3.82231141
C       -0.44595477       0.37247676      -2.13680919
C       -1.10195061       0.71093552      -3.08577239
H       -0.38852629      -2.11047821      -0.90961640
H        1.21272448      -1.88677897      -0.17650105
H        1.03188789      -1.87215400      -1.93747800
H        1.30764879       0.44498859      -1.01773088
H       -1.34160191      -0.07709768       0.41420320
H       -0.58789899       1.49781586       0.22664277
H        1.45388968       0.63378307       1.46920890
H        0.57690760      -0.86807724       1.83301902
H       -0.35176647       1.96238889       2.66590688
H       -1.67109396       1.01419615      -3.92939204
