18
Properties=species:S:1:pos:R:3 009253=T pbc="F F F"
C       -0.75662599      -3.60587584       0.06039120
C       -0.82248631      -2.15188426      -0.00083288
C       -0.91388592      -0.95145933      -0.06057310
C       -0.93935878       0.50668461      -0.11775556
C        0.48564605       1.08629056      -0.22636264
O        1.30176564       0.64942305       0.85237320
C        0.50462107       2.60995508      -0.15656898
O        1.82239483       3.10863141      -0.23588012
H       -1.65520749      -4.05898529      -0.37242355
H       -0.67261018      -3.95951949       1.09380785
H        0.10642012      -3.99077001      -0.49380505
H       -1.41656236       0.90764342       0.78574454
H       -1.53575414       0.84580896      -0.97444849
H        0.92516614       0.77227714      -1.18572872
H        1.27897913      -0.31490203       0.86007377
H        0.00681034       2.92626678       0.77564408
H       -0.05395115       3.03216160      -0.99865073
H        2.33463899       2.58825364       0.39499519
