24
Properties=species:S:1:pos:R:3 009679=T pbc="F F F"
C        0.17966009      -3.06052613      -1.33146145
C        0.71200139      -1.63176286      -1.16349190
C        0.07891253      -0.91817324       0.01472637
C       -1.24270371      -0.19207932      -0.11898337
C        0.02028616       0.58717501       0.18465730
C        0.58893603       1.49603251      -0.89090804
C        0.18308275       1.11097479       1.60816583
C       -0.56370612       2.41955846       1.89709744
H       -0.90311438      -3.05879864      -1.49505020
H        0.37692745      -3.66306930      -0.43781012
H        0.64999019      -3.56329407      -2.18247514
H        0.53278681      -1.07267245      -2.08846080
H        1.80217162      -1.66338454      -1.03313414
H        0.20625519      -1.46282970       0.94954791
H       -1.98706947      -0.30685762       0.66292166
H       -1.66372352      -0.10278159      -1.11655093
H        0.46074765       1.08012275      -1.89290132
H        1.66142406       1.66767574      -0.73670249
H        0.09483264       2.47342226      -0.88345468
H        1.25284697       1.24826246       1.81986079
H       -0.16781827       0.34223750       2.30758686
H       -0.45880223       2.70273348       2.94923531
H       -1.63284746       2.31807431       1.68174777
H       -0.18107637       3.24996019       1.29583735
