16
Properties=species:S:1:pos:R:3 010315=T pbc="F F F"
C        0.14048583      -2.16962858      -0.85128454
C        0.00301303      -0.67332022      -1.00336858
O        0.00640161      -0.10730236      -2.07117803
C       -0.14708486       0.12517194       0.30592731
C       -0.70337201       1.52040023       0.06182114
O       -0.85418243       2.12137161       1.33995951
C        1.21786985       0.19802750       0.99775704
O        1.75593099      -0.73538497       1.53309389
H       -0.82682764      -2.58791464      -0.54687020
H        0.85282413      -2.40677516      -0.05539827
H        0.44284620      -2.61723724      -1.79867862
H       -0.80207281      -0.43646492       0.98209332
H       -1.65708854       1.45553819      -0.47894206
H       -0.00702600       2.08170433      -0.57710983
H       -1.12416223       3.03610037       1.21617488
H        1.70244487       1.19571392       0.94600305
