18
Properties=species:S:1:pos:R:3 012637=T pbc="F F F"
C        0.87513952      -1.98212620       0.32239809
C        0.91650826      -0.44958709       0.30339528
C        0.20760892       0.20969687       1.46563201
C       -0.53682299       1.25146580       1.10203132
C       -0.49152492       1.48483408      -0.38472909
O       -1.77398771       1.66543064      -0.98548603
C        0.25012492       0.21287055      -0.93645538
O       -0.68840936      -0.68163831      -1.50419985
H       -0.15407210      -2.34473979       0.29582995
H        1.35767923      -2.36270944       1.22886835
H        1.39945441      -2.40040905      -0.54160040
H        1.97227660      -0.14165909       0.32281299
H        0.34259715      -0.13547372       2.48612412
H       -1.10642625       1.89484484       1.76395505
H        0.06227937       2.39671488      -0.63772797
H       -2.36162929       1.02202360      -0.57199887
H        1.00287850       0.49297283      -1.68703675
H       -1.27367425      -0.13251139      -2.04181281
