16
Properties=species:S:1:pos:R:3 012987=T pbc="F F F"
C        0.51182076      -1.97371221       0.05417835
C        0.36085138      -0.48068788       0.04980151
N        1.23122715       0.39720206      -0.78352348
C       -0.22405433       0.36380763      -1.02030715
C       -0.93564044       1.54512092      -0.37356313
N       -0.64506973       1.35578186       1.03957562
C        0.05036111       0.22131575       1.36196697
O        0.34104103      -0.15856049       2.47560160
H       -0.39852303      -2.45958163       0.41889699
H        1.32869289      -2.26518358       0.72107887
H        0.72388323      -2.35276944      -0.95073426
H        1.68946696      -0.18876670      -1.48054562
H       -0.61121636      -0.05258401      -1.94334522
H       -2.01533359       1.51048278      -0.57067921
H       -0.54398299       2.49952944      -0.74503496
H       -0.86352404       2.03860549       1.74663313
