18
Properties=species:S:1:pos:R:3 012853=T pbc="F F F"
C        0.41300036      -2.00913939       0.07865934
C        0.11672892      -0.53406830       0.22881098
C        1.31363345       0.46600394       0.10900372
C        0.58375731       1.20701969      -1.04936265
C       -0.63070847       0.24553725      -0.90479658
O       -1.78601143       0.77786906      -0.28296504
C       -1.51626014       0.78159543       1.10292463
O       -0.70778923      -0.33848571       1.37369760
H       -0.51742227      -2.58076859       0.01393438
H        0.98237444      -2.37461399       0.93941104
H        1.00413990      -2.19517630      -0.82324410
H        2.26119181      -0.00337705      -0.16577055
H        1.47047204       1.05567679       1.01508462
H        1.08289722       1.13712697      -2.01864654
H        0.33556727       2.25440401      -0.86351876
H       -0.94619642      -0.29343901      -1.80031745
H       -2.45747687       0.68895148       1.65190517
H       -1.00189791       1.71488372       1.39519019
