16
Properties=species:S:1:pos:R:3 012499=T pbc="F F F"
O       -0.22893074       2.57228031       1.63564682
C       -0.06546454       1.74330432       0.79292012
O        1.14761439       1.18319502       0.58838234
C        1.35241821       0.35950246      -0.57147098
C        0.82224452      -1.05974913      -0.35129206
C       -0.52189106      -1.04247409       0.39139741
C       -1.50158619      -0.00421233      -0.14189319
O       -1.04521723       1.36508922      -0.07287652
H        2.43245107       0.36432014      -0.73203946
H        0.87179658       0.83054699      -1.43300789
H        1.54360009      -1.64958061       0.22277269
H        0.71864615      -1.54455159      -1.32921165
H       -0.35131719      -0.85875361       1.45801527
H       -1.00646186      -2.02253702       0.32449345
H       -2.44256054      -0.05496957       0.41736505
H       -1.72534166      -0.18141050      -1.19920140
