20
Properties=species:S:1:pos:R:3 013812=T pbc="F F F"
C        0.18103517      -2.33586836       0.81371830
C        0.15510226      -0.81198287       0.71349311
O       -0.52850792      -0.24294380       1.84892890
C       -0.44387838      -0.33255705      -0.59272340
C        0.43053649       0.05263608      -1.76421028
C       -0.34831189       1.11430251      -1.03022769
C        0.35132891       2.14736581      -0.16791143
O       -0.41197192       2.52517440       0.95888094
H       -0.83312324      -2.74679718       0.73495469
H        0.60559010      -2.65104374       1.77034574
H        0.77721626      -2.76606596       0.00320114
H        1.17680212      -0.43186120       0.81138775
H       -1.44905787      -0.52758945       1.80846147
H       -1.37653503      -0.83491146      -0.84670334
H        0.12205348      -0.23651918      -2.76258590
H        1.50581752       0.02957331      -1.61056108
H       -1.23362089       1.49612326      -1.53147631
H        0.51557647       3.05957195      -0.75299874
H        1.34983691       1.77928491       0.12207271
H       -0.54588856       1.71410800       1.47395342
