18
Properties=species:S:1:pos:R:3 013983=T pbc="F F F"
C       -0.11907865      -2.86272641      -0.76449286
O       -0.37666489      -1.48498575      -0.63040032
C        0.68888661      -0.78427259      -0.03170903
C        0.31670971       0.66419243       0.05416864
C       -0.54250645       1.43553678      -0.89164468
C       -0.87926153       1.41507558       0.59113622
C        0.15267718       2.24599604       1.34321532
O        1.25221955       1.52772248       0.71267598
H        0.05050676      -3.34317013       0.21185388
H        0.76152776      -3.05282179      -1.39788868
H       -0.99664780      -3.31413648      -1.23316819
H        1.61608739      -0.88995431      -0.62314009
H        0.90361424      -1.17481699       0.97725160
H       -1.20053077       0.82933138      -1.50413910
H       -0.15477654       2.33715790      -1.35938478
H       -1.82156504       1.05517654       0.98025796
H        0.15697837       2.07361576       2.42542284
H        0.19182411       3.32307956       1.13998530
