16
Properties=species:S:1:pos:R:3 013241=T pbc="F F F"
N        1.49759067       3.82927310       0.38315639
C        1.42060939       2.68758485       0.22768195
C        1.31313230       1.24356402       0.00121753
N        0.03993860       0.72925904       0.49524257
C       -0.11859111      -0.69508672       0.31729854
C       -0.45170030      -1.31619126      -1.07297118
O       -1.62345306      -1.95777559      -0.53515711
C       -1.48596250      -1.27536357       0.72655993
H        2.12552744       0.74684637       0.54641434
H        1.49701532       1.05723584      -1.07197969
H       -0.72855879       1.23191272       0.06120878
H        0.72253191      -1.19699845       0.80521406
H        0.25765920      -2.03996041      -1.49053621
H       -0.70265601      -0.57179137      -1.84406712
H       -2.26027838      -0.50855869       0.87291747
H       -1.50280469      -1.96394988       1.57779975
