20
Properties=species:S:1:pos:R:3 014027=T pbc="F F F"
O       -1.38942988      -2.04789830      -0.69729004
C       -0.99994722      -1.74112671       0.63842462
C        0.34508776      -1.07037776       0.59634818
C        0.70230438      -0.04420898       1.65111359
C        0.45052479       0.38596163       0.23671799
C       -0.68541965       1.25241454      -0.33100359
C        0.24063472       1.58831193      -1.53798326
C        1.44868973       0.97666818      -0.76829399
H       -2.20611216      -2.55520139      -0.66102070
H       -0.94620941      -2.65451595       1.25204662
H       -1.73072098      -1.06969992       1.11740044
H        1.15051653      -1.70996861       0.24246940
H        1.72207938      -0.02469954       2.02293181
H       -0.04731698       0.19476669       2.40081454
H       -0.90951562       2.12554654       0.29037228
H       -1.61824364       0.73644132      -0.56944026
H        0.32075472       2.64099426      -1.81744479
H       -0.01918377       1.00938897      -2.42696571
H        2.07574228       0.26726474      -1.31606412
H        2.09576503       1.73993836      -0.32313299
