20
Properties=species:S:1:pos:R:3 014877=T pbc="F F F"
C        0.60815906      -2.83341575       0.60115379
C        0.34539753      -1.34436169       0.84463516
C       -0.56222970      -0.75429333      -0.22172149
O        0.02013026      -0.81166825      -1.55181322
C        0.00331325       0.62221733      -1.68778826
C       -0.67747396       0.78580074      -0.30847744
O        0.03859310       1.46138009       0.68804350
C       -0.03079797       2.86531133       0.56948832
H       -0.32004221      -3.41458908       0.64380495
H        1.29236147      -3.24063047       1.35138691
H        1.05303108      -2.98534693      -0.38632756
H        1.28652148      -0.78654544       0.85958098
H       -0.12588155      -1.18969599       1.82310532
H       -1.53476184      -1.26679483      -0.21548443
H       -0.57320611       0.94580241      -2.56291669
H        1.01376861       1.04874594      -1.73765671
H       -1.70933603       1.16180532      -0.35999800
H        0.53072317       3.28966174       1.40481309
H       -1.07100532       3.22375006       0.61818328
H        0.41273567       3.22286680      -0.37201151
