20
Properties=species:S:1:pos:R:3 015765=T pbc="F F F"
C        0.06437767      -3.63674274      -0.58379885
C        0.18715608      -2.18672156      -0.52472533
C        0.28162504      -0.98662989      -0.48291871
C        0.41027670       0.47111335      -0.40779135
C        1.89103551       0.89608350      -0.32994971
C       -0.38983004       1.03589717       0.76176256
C       -1.86797776       1.27705762       0.62970762
C       -0.91540317       2.44735345       0.70203500
H       -0.65585887      -4.00667234       0.15464855
H        1.02316964      -4.12830802      -0.38402267
H       -0.27646435      -3.96862109      -1.57102428
H       -0.01317882       0.89854480      -1.32892245
H        1.97072660       1.98717743      -0.31133813
H        2.45224437       0.51694008      -1.18814905
H        2.35627643       0.50104364       0.57841739
H       -0.04348573       0.68855344       1.73163506
H       -2.50410233       1.07372863       1.48388102
H       -2.32986523       1.05882981      -0.32770695
H       -0.74359758       3.01488250      -0.20748517
H       -0.89712415       3.04649023       1.60574545
