20
Properties=species:S:1:pos:R:3 017111=T pbc="F F F"
C        0.74288013      -2.50629500      -0.99459372
O        1.05482419      -1.15175632      -0.77478538
C        0.32834514      -0.56639194       0.28697998
C       -1.15929890      -0.20814807      -0.06436935
C       -1.07888833       1.32226399       0.09550237
C       -0.28134757       1.45255808       1.42628993
C        0.86370358       0.84499878       0.56478653
C        0.26256229       1.65588442      -0.61999318
H       -0.30868405      -2.65232348      -1.28526678
H        0.93705719      -3.11863949      -0.09920795
H        1.38148094      -2.86034215      -1.80786402
H        0.39729853      -1.21316241       1.17538312
H       -1.88339058      -0.66587552       0.61616553
H       -1.40288567      -0.51272711      -1.08650207
H       -1.98910374       1.89326937      -0.09087917
H       -0.63275343       0.88992779       2.29766956
H       -0.08253687       2.48978756       1.70489834
H        1.91306631       0.91518705       0.85006483
H        0.51334042       2.71767019      -0.56407394
H        0.42433044       1.27411425      -1.63020464
