19
Properties=species:S:1:pos:R:3 017636=T pbc="F F F"
C       -0.09830005      -1.95294572       0.41585891
C       -0.35089711      -0.47029352       0.10500447
C        0.95220973       0.28881443      -0.09777048
C        1.00497723       1.51765570      -0.96853719
C        1.66748498       0.23819563      -1.42188715
C       -1.10861615       0.17490073       1.27190599
N       -2.26421514       0.82252191       0.94194680
O       -0.70232631       0.11251632       2.41702982
H       -1.03763523      -2.50962457       0.49324659
H        0.42665194      -2.04459667       1.36999339
H        0.51066186      -2.40961136      -0.36939841
H       -0.94631853      -0.38924581      -0.81436879
H        1.57317236       0.30528844       0.79301781
H        1.63266130       2.34550522      -0.65834861
H        0.09597188       1.82132678      -1.47867485
H        1.19933731      -0.31261068      -2.23193030
H        2.75075363       0.18868027      -1.42300596
H       -2.55549411       0.94760895      -0.01086822
H       -2.75007957       1.32591395       1.66678617
