18
Properties=species:S:1:pos:R:3 018402=T pbc="F F F"
C        1.22349511      -1.56120661       0.74059997
C       -0.13689628      -0.89204822       0.80006049
C       -1.03736139      -0.83043687      -0.42459266
C       -1.49072074       0.59550522      -0.76300645
O       -0.47910425       1.36379749      -1.40156991
C        0.61008256       1.72672901      -0.60591550
O        1.48659410       0.66054907      -0.31070720
C        1.12757865      -0.06980579       0.82894489
H        1.52873460      -1.96331396      -0.21932583
H        1.58447110      -2.11149384       1.60226470
H       -0.66532524      -0.96062404       1.74748068
H       -1.92213552      -1.45697172      -0.25827803
H       -0.52593935      -1.23278044      -1.30480989
H       -1.84115375       1.11193816       0.14623533
H       -2.32137357       0.56987533      -1.47536074
H        0.26525737       2.19768083       0.33147773
H        1.18630801       2.44057502      -1.19931760
H        1.40748856       0.41203135       1.76582000
