16
Properties=species:S:1:pos:R:3 018916=T pbc="F F F"
C        0.14944845      -2.07907181       0.06905553
C        0.05587831      -0.58483130       0.06876817
C        0.08340438       0.32384340       1.28427387
O       -0.90505644       1.31448010       1.24096450
C       -0.98186847       1.54979187      -0.13640332
C        0.36109166       1.37722489      -0.82204599
C       -0.71168225       0.29733739      -0.94498529
C        1.12464535       0.50539837       0.19093304
H       -0.83561258      -2.53723420       0.21953675
H        0.80433293      -2.42999463       0.87368891
H        0.55448048      -2.45992521      -0.87546729
H        0.32378960      -0.02927204       2.27843110
H       -1.70384024       2.30129127      -0.42562374
H        0.77590938       2.05045032      -1.55867293
H       -1.28945467      -0.03796432      -1.79551303
H        2.19453413       0.43847588       0.33305971
