17
Properties=species:S:1:pos:R:3 019832=T pbc="F F F"
C        0.58553621      -1.28809920       1.16654249
C       -0.73662005      -0.53595711       1.16069268
C       -1.59647591      -0.49674969      -0.03954368
C       -1.27387604       0.14871852      -1.16673464
C       -0.00923636       0.90066303      -1.31378211
N        1.26134817       0.12113098      -1.34559276
C        0.94209257       0.93140567      -0.16094803
C        0.59093545       0.21191400       1.11210328
H        0.86657138      -1.80489844       0.25706155
H        0.88100586      -1.76722912       2.09348051
H       -1.26984595      -0.53241805       2.10718984
H       -2.55018503      -1.01487754       0.02488468
H       -1.95867236       0.14832344      -2.00992779
H       -0.05104212       1.77454757      -1.95989675
H        1.94219731       0.61016588      -1.92197437
H        1.50313943       1.85133026      -0.01883734
H        0.87312742       0.74202978       2.01528245
