18
Properties=species:S:1:pos:R:3 019471=T pbc="F F F"
C        0.66446056      -2.32452094      -1.06966326
O        1.10083468      -1.02114560      -0.74759814
C        0.33970504      -0.40871708       0.25104424
C       -0.98559434       0.34937295      -0.20360485
C       -0.01792614       1.45361379      -0.74622872
C        0.78914339       1.06706189       0.53846632
C       -0.22153691       1.40755068       1.63374867
C       -1.37792978       0.93857090       1.14781402
H       -0.34988877      -2.32722166      -1.49449924
H        0.67020232      -2.98095239      -0.18600743
H        1.35843265      -2.72461343      -1.81247130
H        0.22990787      -1.06653959       1.12555693
H       -1.75093237      -0.12022631      -0.82098522
H       -0.40823010       2.47231196      -0.80204440
H        0.48765207       1.16336992      -1.66893241
H        1.83877596       1.32262207       0.67763347
H       -0.00575432       1.87969145       2.58157256
H       -2.36132183       0.91977138       1.59619877
