17
Properties=species:S:1:pos:R:3 019256=T pbc="F F F"
C        1.47215176      -1.15214044      -0.41046135
N        1.01062614       0.21116327      -0.21123056
C        0.58810740       0.64738324       1.11570657
C       -0.72765472       0.06201785       1.54589089
C       -0.70840306       1.20654243       0.55611123
C       -0.24435630       0.73113160      -0.83484970
C       -1.17911281      -0.22051477      -1.54771219
O       -1.67302979       0.01655196      -2.62196596
H        0.81286943      -1.93423283       0.00149813
H        2.45270349      -1.26261690       0.06509626
H        1.59905615      -1.34030132      -1.48156276
H        1.30241774       1.08148014       1.80707100
H       -1.05605499       0.34691272       2.54085432
H       -1.01735543      -0.94345687       1.25833236
H       -1.18673864       2.15695384       0.74751682
H       -0.02812239       1.55585877      -1.52209498
H       -1.41710399      -1.16273270      -1.00820008
