15
Properties=species:S:1:pos:R:3 020118=T pbc="F F F"
O       -0.25925189       1.86607080      -0.39557432
C       -0.25180860       0.78301736       0.14133383
C       -1.43489619      -0.15243294       0.12382805
C       -2.28043761      -0.19527577      -1.08610465
O       -2.71363408       0.47416973       0.08494796
N        0.82206815       0.30107573       0.88789332
C        1.61827673      -0.86218076       0.52064461
C        2.19212165       0.52429386       0.49649780
H       -1.36912409      -1.03049091       0.76336727
H       -2.80583101      -1.11740099      -1.33088095
H       -2.01872032       0.45437798      -1.91870952
H        1.41386822      -1.33567985      -0.43665887
H        1.86704663      -1.54378794       1.32903043
H        2.86516579       0.83770683       1.28872082
H        2.35515663       0.99653688      -0.46833578
