13
Properties=species:S:1:pos:R:3 020476=T pbc="F F F"
C       -1.04482006      -1.38880134       1.24743495
O       -0.12522021      -0.61506625       2.01243686
C        0.29609751      -1.07333951       0.72400158
C        0.49717212      -0.02683982      -0.29949892
N        1.30531229      -0.24419192      -1.31155651
O        1.26422982       0.91313931      -2.07910647
C        0.43575884       1.79196552      -1.49481678
C       -0.08996778       1.27119557      -0.35983335
H       -1.90833076      -0.84880637       0.86259474
H       -1.24526101      -2.39100033       1.62304905
H        1.05185843      -1.85589410       0.73019939
H        0.32862635       2.74039369      -1.99808404
H       -0.76545555       1.72724555       0.34317950
