13
Properties=species:S:1:pos:R:3 021898=T pbc="F F F"
O        0.05352212      -1.28370824      -0.00916449
C        0.01486302       0.06294955      -0.00876715
N       -1.14366497       0.63609606      -0.00976546
N       -1.15373183       1.99283267      -0.00953991
C       -0.02473554       2.74926825      -0.00759251
C        1.20126045       2.17417402      -0.00661328
C        1.33420752       0.73302637      -0.00773968
N        2.47066103       0.12879195      -0.00620628
H       -0.86057020      -1.59923860      -0.01031171
H       -2.07255739       2.39861872      -0.00946685
H       -0.18581488       3.82081653      -0.00713935
H        2.09871385       2.77793198      -0.00519459
H        2.32631604      -0.88137766      -0.00630379
