14
Properties=species:S:1:pos:R:3 022026=T pbc="F F F"
N       -0.03119700      -1.29597271       0.23308578
C       -0.02565182       0.05555315       0.07852277
N        1.10927482       0.68855941      -0.03890079
N        1.02758991       2.03781136      -0.12867507
N       -0.05238307       2.79265893      -0.12195012
C       -1.20305408       2.18009468      -0.02417126
C       -1.31399626       0.74698238       0.07930316
N       -2.38053125       0.01599438       0.16210604
O       -3.53862672       0.81496328       0.12877415
H       -0.91534447      -1.74911911       0.06317955
H        0.81350005      -1.79367264       0.00404733
H        1.90867778       2.51568816      -0.20603401
H       -2.08635181       2.80212129      -0.02244767
H       -4.24006804       0.16222082       0.21808487
