16
Properties=species:S:1:pos:R:3 023304=T pbc="F F F"
C        0.05594332      -2.40299240      -0.40873423
C        0.03462669      -0.91637017      -0.28979456
C       -0.02388893      -0.17220757       0.83213678
C       -0.01410538       1.25741607       0.50511611
N        0.03029942       2.29792567       1.24825156
O        0.03203011       1.96361689       2.60526838
C       -0.01950967       1.37268484      -0.98906450
O       -1.17386023       0.77399029      -1.60521719
C        0.03340661      -0.00773577      -1.49167480
H       -0.82203678      -2.76335858      -0.95971027
H        0.06989431      -2.88617023       0.57115266
H        0.93603301      -2.74059633      -0.97060707
H       -0.09794167      -0.54597982       1.84376230
H        0.06880663       2.82732420       3.03005397
H        0.39620604       2.24020417      -1.48920809
H        0.49409652      -0.29775126      -2.43173105
