17
Properties=species:S:1:pos:R:3 023205=T pbc="F F F"
O       -2.23920404      -0.31456538      -1.55709855
C       -1.52891010      -0.86851985      -0.45656084
C       -0.19998663      -0.18302880      -0.38815489
N        0.58741072       0.11052014      -1.62802329
C        0.22287758       1.21820272      -0.72250020
C        1.28321867       1.21942546       0.39817906
C        0.78351164      -0.18801559       0.73464693
N        0.91069966      -1.01090917       1.68790445
O        1.87953155      -0.57020122       2.61029036
H       -3.02118421      -0.85067482      -1.71435164
H       -1.37820692      -1.95176480      -0.58111823
H       -2.06656786      -0.71727821       0.49157401
H       -0.11697365       0.10653570      -2.36911694
H       -0.39125454       2.04394699      -1.05537786
H        1.08521291       1.91936881       1.21444283
H        2.32049456       1.31235244       0.06914855
H        1.86933067      -1.27539440       3.26611626
