19
Properties=species:S:1:pos:R:3 024732=T pbc="F F F"
C        1.14140027      -1.20443544       1.00675112
C       -0.30181163      -1.72872735       0.97832463
N       -1.02752590      -1.31482775      -0.22116509
C       -0.80352232       0.01225568      -0.63240913
C       -1.46926347       0.78149597      -1.56231729
C       -0.81715175       2.04676842      -1.60341825
C        0.20984106       2.01699741      -0.69323261
N        0.22825006       0.76593219      -0.11008551
C        1.12171175       0.32473475       0.94742955
H        1.69473756      -1.60610528       0.14948236
H        1.65646888      -1.52755970       1.91712221
H       -0.83730630      -1.35221934       1.86127635
H       -0.32566433      -2.82031276       1.03249234
H       -0.89330644      -1.96824050      -0.98294772
H       -2.32006339       0.46212678      -2.14377518
H       -1.08299944       2.88683805      -2.22685761
H        0.91695738       2.77148268      -0.38693685
H        2.12155225       0.72654817       0.75582037
H        0.78769574       0.72724803       1.91444633
