16
Properties=species:S:1:pos:R:3 025646=T pbc="F F F"
C        0.19520642      -3.90388520      -0.01383895
C        0.14796680      -2.45122511       0.00456679
C        0.09322032      -1.24579423       0.02212428
C        0.05050685       0.16507328       0.03940164
N       -1.03399751       0.93416583       0.07580687
C       -0.58008117       2.22109284       0.08161618
N       -1.48018284       3.28426050       0.18273735
C        0.79950576       2.25363542       0.04576885
N        1.18145449       0.92852143       0.01619239
H       -0.81536870      -4.32492340       0.02207308
H        0.74966429      -4.29849140       0.84529836
H        0.67868432      -4.27872143      -0.92326029
H       -2.41191656       2.98468703      -0.07460352
H       -1.21086351       4.09704818      -0.35486111
H        1.51361451       3.05896434       0.04814765
H        2.12258653       0.57559192      -0.01716958
