14
Properties=species:S:1:pos:R:3 025435=T pbc="F F F"
N       -0.18624837      -1.41885674      -0.24899520
C       -0.15397829      -0.13579307      -0.18683705
C       -1.28795468       0.77905403      -0.34633401
C       -1.13683904       2.10568255      -0.26128298
O        0.05988787       2.71573140      -0.02356813
C        1.13553030       1.91994305       0.13087138
C        1.10931640       0.57300112       0.06693439
C        2.38759116      -0.15997193       0.25988473
O        3.44834355       0.38724002       0.47018700
H       -1.13556839      -1.74868282      -0.43075085
H       -2.27620768       0.37555909      -0.53822035
H       -1.92812938       2.83580273      -0.36853997
H        2.04379671       2.47967991       0.31553091
H        2.29392054      -1.25791357       0.19461698
