18
Properties=species:S:1:pos:R:3 026023=T pbc="F F F"
C       -0.52554782      -3.03950912      -0.01213894
C       -0.70344224      -1.53203153      -0.00409506
O       -1.78247666      -0.99814446       0.00538135
C        0.60706502      -0.72254405      -0.00885086
N        0.42477272       0.70175398       0.00047372
C        0.27413042       1.47896512       1.12516317
C        0.02831793       2.77050042       0.72666993
C        0.01712954       2.77841383      -0.69631570
C        0.25651229       1.49141097      -1.11297336
H       -1.50203396      -3.52425565      -0.01002650
H        0.04763995      -3.36326242       0.86413242
H        0.04003053      -3.35510754      -0.89627532
H        1.19091650      -1.01432228      -0.89059052
H        1.20345596      -1.02414282       0.86108030
H        0.35778322       1.04095512       2.10731071
H       -0.11864070       3.61593705       1.38096332
H       -0.14006644       3.63105099      -1.33877882
H        0.32445375       1.06433238      -2.10112984
