15
Properties=species:S:1:pos:R:3 026075=T pbc="F F F"
O        0.00762006      -1.44603721       0.01149397
C       -0.07851606      -0.02182874       0.00114280
C       -0.68868252       0.48995218       1.23311724
C       -1.21026558       0.85668292       2.25149212
C       -0.79745697       0.46646337      -1.23491272
C       -1.21716644      -0.29453490      -2.29425704
N       -1.78124019       0.60150963      -3.17673428
C       -1.67359092       1.84019038      -2.61936029
N       -1.08425185       1.79476384      -1.44770945
H       -0.85243273      -1.77649269       0.29479301
H        0.96347792       0.32216862      -0.03799743
H       -1.66297924       1.19931069       3.14892064
H       -1.15155114      -1.34819520      -2.50033608
H       -2.19602394       0.37803808      -4.06564689
H       -2.04139573       2.72869053      -3.11074830
