16
Properties=species:S:1:pos:R:3 027423=T pbc="F F F"
C        0.32319522      -2.46580821       0.03905801
C       -0.01213600      -0.99999830       0.19496291
N        0.30328114      -0.43132568       1.30562965
C        0.02505219       0.88366026       1.66652367
O       -0.47989003       1.15386886       2.73503938
C        0.47169715       1.95037927       0.73967561
C        0.13828468       1.97852948      -0.56736939
C       -0.54174425       0.93634319      -1.29525794
C       -0.64783145      -0.37084355      -0.95464356
H        0.94973780      -2.63417458      -0.84375465
H       -0.59413356      -3.04942764      -0.10409774
H        0.83857386      -2.82615022       0.92905053
H        0.95776825       2.80432656       1.20218779
H        0.35725858       2.88165030      -1.13188687
H       -0.95966552       1.23160680      -2.25474864
H       -1.12944804      -1.04263654      -1.66036878
