15
Properties=species:S:1:pos:R:3 027113=T pbc="F F F"
N        0.20242294      -1.32591740       0.41831994
C        0.10106950       0.01179852       0.10471961
C        1.07312578       0.96957041       0.00676687
C        2.56107652       0.93972947       0.09995428
C        2.91833703       0.27841761       1.42302764
O        3.12383722      -0.90488477       1.53624712
O        0.42893388       2.17248052      -0.23593335
C       -0.87256589       1.85048542      -0.29147311
N       -1.14036304       0.59831594      -0.09972882
H       -0.52946503      -1.90052259       0.02928233
H        1.12680445      -1.72604247       0.35683497
H        2.94376967       1.96382534       0.06679339
H        3.01685515       0.36138720      -0.71330638
H        2.90955618       0.95038227       2.30761549
H       -1.56698368       2.65241947      -0.48818303
