18
Properties=species:S:1:pos:R:3 029897=T pbc="F F F"
C       -0.00450962      -1.45301550      -0.01315016
N        0.00593235      -0.00303881       0.00583491
C       -0.07465204       0.77588980       1.14332460
C       -0.09671040       2.09226515       0.76226158
C       -0.02830641       2.12382162      -0.66631803
C        0.03098925       0.80401498      -1.08742841
C       -0.01149974       3.27385918      -1.58117956
C       -0.08184516       4.66027514      -0.95895652
O        0.05503517       3.12899885      -2.78941125
H       -1.00845903      -1.84699660       0.17790702
H        0.67716057      -1.84416570       0.74680038
H        0.32894292      -1.80190107      -0.99178803
H       -0.10716658       0.31600080       2.11842451
H       -0.14536567       2.93990049       1.42814802
H        0.08928069       0.40640961      -2.08749948
H        0.76372087       4.82222947      -0.28128903
H       -0.99614161       4.77140264      -0.36560119
H       -0.06535510       5.41085443      -1.74975596
