15
Properties=species:S:1:pos:R:3 029145=T pbc="F F F"
C        0.02916935      -1.48912035       0.02718893
C       -0.01040702       0.00648530       0.05027389
N       -0.01726176       0.65067571       1.17124541
C       -0.04848171       2.03060708       1.15873515
N       -0.13114738       2.62440863       2.41875846
C       -0.05569773       2.70715945      -0.01266569
O       -0.05107588       2.05161420      -1.20519195
C       -0.03640536       0.68229621      -1.26660711
O       -0.03849898       0.12728295      -2.33613257
H       -0.84194090      -1.88374215      -0.50670983
H        0.04972009      -1.87793771       1.04547169
H        0.90712289      -1.83904841      -0.52629308
H        0.25313082       2.02513061       3.13658795
H        0.23950030       3.56231381       2.47479147
H       -0.07243682       3.78205804      -0.13066721
