19
Properties=species:S:1:pos:R:3 030308=T pbc="F F F"
C        0.26880863      -1.54683139       0.02760292
C       -0.03872215      -0.04768659      -0.04368603
C       -0.96450883       0.44651213       1.11976788
N       -1.74566364       1.59627228       0.58647186
C       -1.79742150       1.35721432      -0.80864402
C       -0.86556636       0.43332030      -1.19668252
N       -0.84758554       0.39778979      -2.57048497
C       -1.80936083       1.26292892      -3.04081119
C       -2.41694880       1.89267037      -1.96687067
H       -0.65227786      -2.13678586      -0.02115607
H        0.78863758      -1.79807915       0.95862515
H        0.91484493      -1.85902730      -0.80029852
H        0.91674845       0.50023553       0.00090406
H       -0.39566423       0.74279038       2.00572121
H       -1.62883271      -0.38549983       1.40210473
H       -2.65427468       1.67215932       1.02907965
H       -0.29476361      -0.21207378      -3.14565369
H       -2.00763734       1.34330917      -4.09789422
H       -3.19856279       2.63349653      -2.03237078
