18
Properties=species:S:1:pos:R:3 030487=T pbc="F F F"
C       -0.04798303      -1.46122546       0.05013527
N       -0.09267180      -0.01563181       0.12139554
C       -0.58382104       0.62652787      -0.87228588
N       -1.09183429       0.02782674      -2.04781394
C       -1.60499621       0.75082918      -3.08006312
N       -1.68985579       2.03551101      -3.11454636
C       -1.21080329       2.71222509      -1.99279914
C       -1.32767488       4.20554911      -2.07207572
C       -0.68388893       2.06876139      -0.92138117
H       -1.04734502      -1.92138588      -0.04805577
H        0.39383573      -1.85580959       0.96864302
H        0.56743081      -1.83479931      -0.78759228
H       -1.07105439      -0.97725156      -2.12074647
H       -1.96134384       0.16368813      -3.92440694
H       -2.37510908       4.49466784      -2.21135944
H       -0.78029767       4.58063586      -2.94372427
H       -0.94116747       4.69079225      -1.17354648
H       -0.31502976       2.60453775      -0.05597357
