20
Properties=species:S:1:pos:R:3 031651=T pbc="F F F"
C       -0.01665362      -1.39667583      -0.00796113
O       -0.03000462       0.01401139      -0.01018466
C        1.19453810       0.60516835      -0.01748956
C        2.44473523       0.02482249      -0.03329774
N        3.37516756       1.05268148      -0.05786753
C        4.80470828       0.85758159       0.02675981
C        2.72349893       2.26274303      -0.04205641
C        3.45218211       3.56654592      -0.04495099
C        1.36692356       2.01470548      -0.02236475
H       -1.05779427      -1.72479294       0.00064018
H        0.49557401      -1.79134957       0.88135083
H        0.48172574      -1.79426493      -0.90379421
H        2.76104430      -1.00388589      -0.03596838
H        5.17891422       0.96464794       1.05327001
H        5.32923372       1.57785011      -0.60686306
H        5.05163273      -0.14619461      -0.32597665
H        4.10309528       3.68746296       0.83031498
H        2.73070061       4.38645389      -0.03372671
H        4.08163033       3.69491331      -0.93499793
H        0.58019343       2.75277316      -0.02636500
