18
Properties=species:S:1:pos:R:3 032596=T pbc="F F F"
C       -0.14542322      -1.57537854      -0.12723198
C        0.06714634      -0.07080446       0.06029184
N       -0.64701424       0.46779325       1.20445553
C       -2.01925358       0.77193665       1.28323567
C       -2.22179471       1.18935768       2.57082494
N       -3.40585335       1.56060438       3.21473726
N       -1.04246378       1.15131648       3.29127426
C       -0.15259648       0.71204759       2.43484294
O        1.15438677       0.50687444       2.69126224
H       -1.20598385      -1.80740758      -0.26013608
H        0.21808401      -2.12772066       0.74384824
H        0.39698347      -1.92705866      -1.01046952
H       -0.26000031       0.47508511      -0.83149789
H        1.12752546       0.14907650       0.20562031
H       -2.66924868       0.66530270       0.43229756
H       -4.06610898       2.02201903       2.60355997
H       -3.20836848       2.14273133       4.01857624
H        1.28581152       0.76095441       3.61289281
