16
Properties=species:S:1:pos:R:3 032035=T pbc="F F F"
C        0.10885681      -1.44270331      -0.00962163
O        0.04123699      -0.01352883      -0.00527673
C        1.17614171       0.68553151      -0.01190792
C        1.19712891       2.04129817      -0.00861983
C        2.47901223       2.66767388      -0.01647528
C        3.62632433       1.94500413      -0.02678295
C        3.59380434       0.50573732      -0.03021968
N        4.59956420      -0.26779833      -0.03964286
O        2.28815182      -0.06130974      -0.02201186
H       -0.92856766      -1.77670483      -0.00287053
H        0.62808071      -1.81654622       0.87695200
H        0.61493765      -1.81174998      -0.90575299
H        0.26940189       2.59285825      -0.00037789
H        2.52643871       3.75183544      -0.01406012
H        4.60745638       2.39901139      -0.03286366
H        4.31496426      -1.24619527      -0.04003750
