14
Properties=species:S:1:pos:R:3 032490=T pbc="F F F"
C        0.00326386      -1.40627967      -0.03173967
O       -0.01193948       0.02235629      -0.01371700
C       -0.62643112       0.61892652      -1.03880328
C       -0.76404865       1.97107446      -1.22685261
O       -1.44832721       2.15000260      -2.38559396
C       -1.69373331       0.90656759      -2.84545761
C       -2.42697585       0.71682614      -4.09976381
O       -2.85047027       1.61265461      -4.79024982
N       -1.22218557      -0.04380152      -2.07541204
H       -1.01349937      -1.81031283      -0.01802348
H        0.53839660      -1.70501176       0.86994875
H        0.52069995      -1.78262776      -0.91935143
H       -0.46107936       2.84623319      -0.68133475
H       -2.55237196      -0.35532478      -4.34991976
