17
Properties=species:S:1:pos:R:3 033428=T pbc="F F F"
N       -0.25151642       1.19338912       0.13113249
C       -0.13842894       0.04532636       0.08749507
C       -0.00911190      -1.41782250       0.02280036
C       -1.39419362      -2.13162794      -0.05902439
C       -2.14601235      -1.80734295      -1.32816995
C       -3.03484477      -0.58943620      -1.41564589
C       -3.64631908      -1.96466373      -1.36702098
C        0.76923503      -1.91266213       1.16689938
N        1.36187924      -2.34234385       2.05958053
H        0.55631780      -1.65719364      -0.88755495
H       -1.98140281      -1.85232176       0.82119500
H       -1.19972359      -3.20709293       0.01192800
H       -1.61821875      -2.08095679      -2.23898904
H       -3.05935430      -0.04312820      -2.35129081
H       -3.12065260       0.03879637      -0.53621283
H       -4.14666583      -2.26621650      -0.45261026
H       -4.09150334      -2.36838494      -2.26906937
