18
Properties=species:S:1:pos:R:3 033180=T pbc="F F F"
C       -0.25190583      -2.76062800      -1.65127735
C        0.08260174      -1.26776017      -1.62523143
C       -0.55172900      -0.54444021      -0.43384936
N       -0.26372050       0.88102215      -0.49190325
C        0.02264987       1.50223899       0.55241001
O        0.10643208       1.02230115       1.84603583
C        0.46905467       2.09169505       2.64316552
C        0.59265517       3.17253065       1.88272029
O        0.31791139       2.84170714       0.57271599
H       -1.33355369      -2.92498781      -1.71657224
H        0.10351689      -3.26627693      -0.74616309
H        0.21075988      -3.25578519      -2.51028576
H       -0.25826017      -0.78325525      -2.54709524
H        1.16930475      -1.12503518      -1.58686052
H       -0.21227622      -1.00529161       0.50507703
H       -1.64225540      -0.68027957      -0.47514295
H        0.58813674       1.90609921       3.69559352
H        0.85067763       4.19614557       2.08666299
