18
Properties=species:S:1:pos:R:3 034120=T pbc="F F F"
N        0.18966446       3.51758048      -0.11382981
C        0.21274114       2.36135441      -0.14667962
C        0.22961668       0.92016208      -0.19842587
C        0.65692751       0.14961320      -1.48554744
C       -0.16472322      -0.98535281      -0.86331175
C        0.26740253      -1.18700533       0.65775896
C       -1.17701068      -0.79454214       1.06930374
C       -1.12377237       0.05540145      -0.20389195
C        1.01758360       0.14090610       0.88774256
H        1.72995298       0.02985739      -1.65971133
H        0.17155700       0.54407236      -2.38166185
H       -0.51831845      -1.85372190      -1.41528906
H        0.73857609      -2.10398685       1.00801997
H       -1.32585541      -0.31750383       2.04277181
H       -1.88731436      -1.61745276       0.94702515
H       -1.98353841       0.49690264      -0.70447244
H        0.88028101       0.53468339       1.89745896
H        2.08622991       0.10903214       0.66273997
