17
Properties=species:S:1:pos:R:3 035939=T pbc="F F F"
N        0.33840442       1.18346654       0.22488705
C        0.18021433       0.04227962       0.13049001
C       -0.00427808      -1.40800851       0.00257217
C        0.66642736      -1.94196682      -1.27692781
C        0.16474039      -1.27573738      -2.55008235
O       -1.16398225      -1.61922169      -2.95298778
C       -2.24408655      -1.37486267      -2.16453136
N       -2.42768536      -1.39001831      -0.91817668
C       -1.49806308      -1.80476987       0.10495812
H        0.49225233      -1.86331585       0.86904716
H        0.50663787      -3.02458238      -1.33170993
H        1.74730706      -1.77276173      -1.21949160
H        0.78556285      -1.57794610      -3.39645374
H        0.23067196      -0.18485681      -2.45174456
H       -3.09958267      -1.17518420      -2.81114547
H       -1.87923704      -1.43859082       1.06342604
H       -1.52580758      -2.90278095       0.16067991
