19
Properties=species:S:1:pos:R:3 035979=T pbc="F F F"
N       -0.40841181       1.15173207      -0.94609801
C       -0.27760373       0.09858045      -0.48953208
C       -0.08420357      -1.26076055       0.03326227
C        0.98408180      -1.99866794      -0.82392479
O        1.38696777      -3.17451904      -0.16278148
C        0.71537216      -4.37244878      -0.52479618
C       -0.82177000      -4.30015246      -0.46654331
C       -1.37279899      -3.31137323       0.57986605
N       -1.38690312      -1.90582512       0.16938523
H        0.35359978      -1.17533163       1.03725569
H        1.86815392      -1.35840309      -0.92045239
H        0.59740576      -2.19468580      -1.83406506
H        1.08260023      -5.11050292       0.19484384
H        1.03743990      -4.70041325      -1.52502204
H       -1.19926921      -5.30920483      -0.25997276
H       -1.23186489      -4.02131961      -1.44534348
H       -0.80773956      -3.38878468       1.51579892
H       -2.40878157      -3.58029115       0.81157985
H       -1.91269426      -1.80301160      -0.69294951
