19
Properties=species:S:1:pos:R:3 035764=T pbc="F F F"
N        0.07542889       1.15214377       0.44584973
C        0.05695581       0.02192524       0.20553786
C        0.00663708      -1.42751638      -0.08520215
N        0.67034137      -1.72759384      -1.36216253
C       -0.23478172      -1.89279613      -2.51384144
C       -1.64351156      -2.35701532      -2.09993609
C       -1.54532372      -3.26017350      -0.83646018
C       -1.46011859      -1.93089701      -0.03473134
C       -2.27060806      -1.27247585      -1.18201146
H        0.57927268      -1.92152330       0.70847425
H        1.22690999      -2.56135553      -1.24394892
H        0.23104066      -2.61321802      -3.19414167
H       -0.31591644      -0.94398679      -3.06121758
H       -2.21753318      -2.70652098      -2.96106747
H       -0.71549208      -3.96990794      -0.76096489
H       -2.48356468      -3.78207360      -0.63591307
H       -1.85173151      -1.88419407       0.98331273
H       -3.34520799      -1.41432621      -1.04493441
H       -2.07051824      -0.22219060      -1.41310367
