21
Properties=species:S:1:pos:R:3 036086=T pbc="F F F"
C        1.85937500       3.02742586       0.19778382
C        1.83639974       1.83345777       0.05878205
C        1.78080860       0.38319536      -0.10061835
C        0.36593379      -0.17744659      -0.02232384
C       -0.48585557      -0.11883681       1.28247974
C       -1.26952655      -1.26718645       0.58448409
C        0.10367266      -1.71428163       0.00760399
C       -1.89987699      -0.53853230      -0.61898750
C       -0.65711693       0.29069277      -1.08093274
H        1.89220814       4.08173144       0.31789422
H        2.40479306      -0.08905265       0.66954598
H        2.22723100       0.10590438      -1.06592392
H       -1.01545290       0.81085699       1.50967960
H        0.07181061      -0.45955556       2.15889119
H       -1.90401984      -1.95266454       1.14656224
H        0.72472433      -2.22882481       0.74587493
H        0.11620575      -2.25898154      -0.94226270
H       -2.74332905       0.09370143      -0.32674338
H       -2.25207892      -1.23307115      -1.38737351
H       -0.33546116       0.04100127      -2.09726074
H       -0.82044479       1.37046675      -1.03715518
