21
Properties=species:S:1:pos:R:3 036481=T pbc="F F F"
C        0.02843070       1.22470381       0.04717376
C        0.03609370       0.02356509      -0.00749672
C        0.01455006      -1.43337124      -0.07494452
C       -1.40731569      -2.02884131      -0.00487013
C       -2.16225695      -1.70891133       1.30842550
C       -3.18990638      -2.85059883       1.47670641
C       -2.54614674      -4.05593012       0.80287373
C       -1.10318802      -4.35010947       1.13162804
C       -1.44725164      -3.54969142      -0.10421170
H        0.03330129       2.28529248       0.09608971
H        0.61750385      -1.84853319       0.74331566
H        0.49926461      -1.75967368      -1.00421034
H       -1.97972899      -1.62305027      -0.84915085
H       -2.62492448      -0.72022895       1.28709983
H       -1.45756720      -1.70181904       2.14751385
H       -4.12251804      -2.60457674       0.95457599
H       -3.44744272      -3.02592797       2.52702808
H       -3.18049199      -4.88263324       0.50214680
H       -0.75797066      -5.36635609       0.97552848
H       -0.63878523      -3.85892566       1.98120674
H       -1.26392194      -4.00348836      -1.07271846
