15
Properties=species:S:1:pos:R:3 037102=T pbc="F F F"
C        0.00381952      -1.52262464      -0.09740495
O       -1.15563925      -0.69370529       0.10846398
C        0.10147732      -0.07029615       0.00264367
C        0.42662611       0.99523117      -1.04315553
O        1.83179816       1.25185471      -0.90157711
C        0.92984556       1.91095460      -0.00019265
C        0.62704792       0.88629077       1.09212721
C        1.21427362       0.68051399       2.41183195
O       -0.12543099       1.18138110       2.24403006
H        0.06913421      -2.00380510      -1.07187181
H        0.28353221      -2.14301391       0.75231925
H       -0.04764932       1.19278231      -1.99643875
H        0.94134715       2.99248877       0.05333131
H        1.93711357       1.39602411       2.80033400
H        1.28211404      -0.32546068       2.82239920
