19
Properties=species:S:1:pos:R:3 037823=T pbc="F F F"
C        0.10773463      -1.58081831      -0.07567790
C       -1.40293861      -1.29504895      -0.00335958
C       -1.28221039       0.01465921      -0.88715852
C       -2.04878040       0.88052320       0.13719082
C       -1.17639948      -0.07943735       0.96848718
O       -0.71806629       0.05253069       2.26955465
C        0.62398961       0.60978445       2.19841542
C        0.96141552       0.92060846       0.69511821
C        0.01902415      -0.03922449       0.00367594
H        0.49282409      -2.00604204      -1.00763543
H        0.54106046      -2.09577573       0.78752520
H       -2.24558596      -1.98848170      -0.02246096
H       -1.33423914       0.03820484      -1.97466358
H       -3.13298642       0.74367041       0.18400997
H       -1.79073620       1.94385885       0.17081618
H        1.31991083      -0.12769294       2.61487109
H        0.66119012       1.50701418       2.82473459
H        2.02212626       0.76327270       0.48380801
H        0.71921333       1.96148646       0.45966428
