17
Properties=species:S:1:pos:R:3 039003=T pbc="F F F"
C        0.05150139      -1.47377302       0.01052665
C       -1.40895336      -1.91405325      -0.12515842
C       -2.25968761      -0.90356223       0.09398130
C       -3.43891924      -0.38577408      -0.75721033
N       -2.65189120       0.49442895      -1.71505742
C       -1.61740763       0.79439316      -1.01972310
N       -0.23174451       0.86481551      -1.21806392
C       -0.01090645       0.08337557       0.07394477
C       -1.49173262       0.35646594       0.41138158
H        0.64058215      -1.83451181      -0.84227346
H        0.55462864      -1.85692068       0.90927044
H       -1.67396284      -2.86259097      -0.58031262
H       -4.19220478       0.16401268      -0.18091755
H       -3.93968760      -1.16071302      -1.34080772
H        0.14699699       0.54913039      -2.10628474
H        0.77541338       0.53139125       0.68102240
H       -1.79760466       0.99405185       1.23802796
