19
Properties=species:S:1:pos:R:3 039924=T pbc="F F F"
C       -0.25748444      -1.96419382      -0.34903376
C       -1.64250292      -1.38028602      -0.28305871
C       -0.43744643      -0.46100497      -0.30257294
C       -0.15314591       0.40114037      -1.48259794
C        0.25328514       1.62743949      -1.14438608
C        0.33663919       1.78348764       0.35059275
O        1.68702673       1.69440427       0.88222288
C        1.45669254       0.34379270       1.33751636
C       -0.02777645       0.37798842       0.90356005
H        0.07118593      -2.41084916      -1.28165850
H        0.13509514      -2.45082925       0.53786983
H       -2.19127154      -1.46704771       0.64933649
H       -2.26370775      -1.42471223      -1.17152393
H       -0.28280285       0.03905030      -2.49801825
H        0.51486134       2.42017699      -1.83504783
H       -0.17147068       2.67233488       0.74134786
H        1.63769267       0.24787509       2.41481702
H        2.07595206      -0.38774300       0.80280878
H       -0.74082177       0.33897601       1.72782592
