21
Properties=species:S:1:pos:R:3 040151=T pbc="F F F"
C       -0.57449721      -2.14948365      -0.54514245
O       -1.69769025      -1.25261206      -0.56766866
C       -0.40684124      -0.71855015      -0.80544993
C        0.03413659      -0.02487879      -2.09534878
C        1.01338940       0.81943419      -1.22495022
C        0.26668708       0.36072934       0.05570410
C        0.91866864       0.02075616       1.41622889
C       -0.34531526       0.57817836       2.12508054
C       -0.71744045       1.30622538       0.80577973
H       -0.52783477      -2.85782965      -1.37208385
H       -0.33194136      -2.56393458       0.43237986
H       -0.77385688       0.57577899      -2.52233360
H        0.46267870      -0.65051179      -2.88162758
H        1.03200496       1.89602658      -1.40987130
H        2.03817160       0.43868867      -1.26282931
H        1.79856542       0.64660832       1.59824504
H        1.19604073      -1.02222018       1.59511920
H       -0.19642643       1.19021829       3.01739757
H       -1.06221234      -0.21348250       2.35706917
H       -1.76368362       1.27929097       0.49365606
H       -0.36260333       2.34156813       0.79064550
