21
Properties=species:S:1:pos:R:3 041749=T pbc="F F F"
C       -0.01779561      -1.55410814       0.02719744
O       -1.44957512      -1.77098656       0.04085164
C       -1.94080602      -0.42543976      -0.00850072
C       -1.07499582       0.33212958       1.03132733
C       -1.39227124       1.82485086       1.16865601
C       -1.05332985       2.58032668      -0.12619322
C       -1.40183305       1.72874892      -1.35729490
C       -1.08305972       0.25068518      -1.10936216
C        0.02944313      -0.02650386      -0.03109833
H        0.42810699      -2.04111601      -0.84874183
H        0.43483508      -1.97328446       0.93422063
H       -3.03172063      -0.42633100      -0.00436705
H       -0.99468117      -0.16342060       2.00372325
H       -0.83302187       2.25212165       2.00863701
H       -2.45530931       1.94113797       1.41910955
H        0.02284647       2.78749603      -0.13814960
H       -1.55430471       3.55271640      -0.16129303
H       -0.84911118       2.09082607      -2.23152899
H       -2.46677859       1.82594431      -1.60778400
H       -1.00990912      -0.31732023      -2.04188131
H        1.01238176       0.44557859      -0.05275689
