19
Properties=species:S:1:pos:R:3 041367=T pbc="F F F"
C        0.59276023      -1.28659656      -1.03953178
C       -0.82981010      -1.47944989      -0.40167922
C       -0.79386796       0.00487322       0.08012236
C       -1.19499065       1.06094725      -0.98131976
O        0.17860504       1.17107505      -1.44958143
C        0.61321402       0.17033937      -0.50109099
C        1.55446244       0.65156207       0.60682129
C        0.60348455       0.74310340       1.79607795
C       -0.65975137       0.39137995       1.51726680
H        0.62720065      -1.33982286      -2.12944954
H        1.36661463      -1.93928360      -0.62727502
H       -0.84473782      -2.19727681       0.42109072
H       -1.63481793      -1.73169023      -1.09673389
H       -1.56280550       2.01490615      -0.58615133
H       -1.87003940       0.71173229      -1.77316979
H        1.99377973       1.62386291       0.35374189
H        2.38756259      -0.03622600       0.80050702
H        0.94485913       1.07288971       2.77290272
H       -1.47172230       0.39367457       2.23745199
