16
Properties=species:S:1:pos:R:3 045694=T pbc="F F F"
O        0.05288548       0.04908823      -0.33654574
C        0.00258905      -1.11813854      -0.03833446
C        1.30498732      -1.89908338       0.26564299
N        1.20533677      -3.35092855       0.44602271
C        0.08338991      -3.69263143       0.88840491
O       -0.45443962      -4.94338519       1.03228471
C       -1.80455430      -4.36193081       1.09441634
C       -1.19484884      -2.93931669       1.13788753
C       -1.33140959      -1.88054040       0.04754614
H        1.75503309      -1.42616879       1.14987897
H        1.99528503      -1.69068536      -0.55821856
H       -2.33823271      -4.69928309       1.98447802
H       -2.36476460      -4.60826479       0.18850460
H       -1.25172376      -2.49724584       2.13645732
H       -1.48876316      -2.36566933      -0.92556239
H       -2.13804648      -1.16057509       0.19792048
