13
Properties=species:S:1:pos:R:3 045956=T pbc="F F F"
O        0.14914598      -0.07005965      -0.46223760
C        0.09083340      -1.23624563      -0.20638176
C        1.27001907      -2.13448768       0.16146728
O        0.78705276      -3.47759914       0.13193887
C       -0.54672346      -3.56025166      -0.14292207
O       -1.10379597      -4.60040533      -0.29403206
C       -1.15132700      -2.14308110      -0.17394539
C       -2.13722542      -1.90842348      -1.20493127
C       -2.93961699      -1.69798764      -2.07165395
H        1.64332630      -1.89459276       1.16364499
H        2.08816825      -2.01842155      -0.55552350
H       -1.60139190      -1.99594037       0.82203474
H       -3.65387618      -1.51992745      -2.83746596
