17
Properties=species:S:1:pos:R:3 045142=T pbc="F F F"
N       -0.86216413      -2.77334573       0.42462282
C       -0.68105165      -1.57991834       0.75458505
O       -1.54306484      -0.67593671       1.36744683
C       -0.49823129       0.33936309       1.44180613
C       -0.55108559       1.30570328       0.23904766
C        0.40904994       0.35615311      -0.50773374
C        1.51113444       0.75602829      -1.41030557
N        0.38281032      -0.06034718      -1.89776020
C        0.47873434      -0.61281793       0.69153255
H       -1.81076596      -3.08133867       0.64570386
H       -0.37001576       0.71631170       2.45486573
H       -0.12940278       2.29443505       0.44000481
H       -1.55360462       1.41716063      -0.18232537
H        2.46497592       0.23602720      -1.37477518
H        1.57303499       1.80264754      -1.70028411
H       -0.27269972       0.50886290      -2.42766994
H        1.45234640      -0.94898823       1.04123866
