17
Properties=species:S:1:pos:R:3 046314=T pbc="F F F"
N       -0.01559221      -1.13945040       0.54493960
C       -0.04868576       0.03759632       0.08834240
N       -0.96315686       0.87230843      -0.54493960
C       -0.11544782       2.07381143      -0.45855480
C        1.03309870       1.13390838       0.02669866
C        2.24330170       0.85060186      -0.88868059
O        3.32575724       1.47688620      -0.21558954
C        3.01312951       1.32568741       1.14188937
O        1.61198257       1.51977144       1.25266717
H       -0.91760058      -1.61226270       0.46526461
H       -1.96960410       0.83396359      -0.48035480
H       -0.40482306       2.78614929       0.32023271
H        0.03096375       2.59173852      -1.41134100
H        2.15306279       1.28210115      -1.88700701
H        2.40064772      -0.23442946      -0.96811543
H        3.53086648       2.09490412       1.72104001
H        3.28032985       0.31838115       1.50385214
