12
Properties=species:S:1:pos:R:3 046466=T pbc="F F F"
O        0.34981714       2.76178945      -0.81055282
C        0.33085074       1.59852246      -0.55116276
O        1.45574705       0.85190087      -0.35450044
C        1.16814014      -0.45394758       0.16017092
C       -0.34435187      -0.60376026       0.06776118
O       -0.81578173      -0.42746380      -1.26662955
C       -0.87246381       0.69782023      -0.37943742
C       -1.04832251      -1.52867687       0.91582191
N       -1.57514600      -2.28330660       1.61415532
H        1.51216356      -0.51736563       1.19698346
H        1.68949326      -1.19557338      -0.44987169
H       -1.85014596       1.10006110      -0.14273812
