19
Properties=species:S:1:pos:R:3 046995=T pbc="F F F"
O       -0.00440350       0.04176413       0.14653051
C        0.01289666      -1.15202640      -0.03475039
C        1.33587988      -1.90641473      -0.22083988
O        1.25959578      -3.09850211      -0.98855675
C        0.04728251      -3.84176260      -0.86016435
C       -0.27278072      -4.21857014       0.60431611
C       -1.13998116      -3.04390550       1.14300928
C       -1.22483711      -2.03200102      -0.03758060
C       -1.13853404      -2.95824144      -1.26984891
H        1.72437589      -2.11523823       0.79213565
H        2.05283353      -1.24277654      -0.70968846
H        0.19198547      -4.71298411      -1.50206833
H        0.64818552      -4.37090186       1.17250471
H       -0.82616345      -5.16124568       0.63354447
H       -0.72833299      -2.58987536       2.04868810
H       -2.15014349      -3.38294931       1.38972019
H       -2.10940005      -1.39463419       0.00514138
H       -2.05693320      -3.54709642      -1.37347760
H       -0.95348180      -2.43377843      -2.21094411
