18
Properties=species:S:1:pos:R:3 046561=T pbc="F F F"
N       -0.08207915      -1.34842872       0.17693304
C        0.00556080      -0.09975163       0.02257511
O       -1.09933273       0.74423565      -0.03905423
C       -0.74263656       2.13067089      -0.31913419
C        0.66846117       1.97777123      -0.82345407
C        2.11195482       2.55804575      -0.85090133
C        2.23685184       1.02773757      -1.21807236
C        1.01827632       1.22642480      -2.15064784
C        1.22955309       0.77133019      -0.04898327
H       -1.06237147      -1.63291889       0.23817722
H       -0.81259021       2.71419232       0.60656289
H       -1.46709732       2.51026867      -1.04414035
H        2.53421774       2.86900108       0.10811149
H        2.35006257       3.26609117      -1.64820058
H        3.15715681       0.48500482      -1.43162884
H        1.17045450       1.85437532      -3.03184766
H        0.43467180       0.33545629      -2.38856911
H        1.61727653       0.98162662       0.95360889
