18
Properties=species:S:1:pos:R:3 047036=T pbc="F F F"
N        0.10066030      -1.21634755      -0.66505454
C        0.00803054      -0.08770498      -0.10214667
C        1.24419088       0.75558265       0.13096511
O        1.15822280       1.52736047       1.31545756
C        0.08516592       2.44168584       1.22117980
C       -0.42147525       2.78609658       2.63690578
C       -1.44397919       1.61766980       2.52231387
C       -1.23767873       1.67301823       0.98827236
O       -1.18855825       0.43845754       0.27952313
H       -0.82633265      -1.63078481      -0.78459901
H        1.40558829       1.40787343      -0.74407815
H        2.10144163       0.08944485       0.22325901
H        0.33299584       3.25813134       0.52786521
H       -0.89951688       3.76773561       2.67064290
H        0.33230904       2.72175097       3.42235782
H       -2.45620065       1.77641230       2.89672106
H       -1.04383347       0.68936173       2.93362444
H       -1.99347299       2.29156652       0.49610754
