19
Properties=species:S:1:pos:R:3 047094=T pbc="F F F"
O        0.62702929       2.64453507       0.71113431
C        0.58743276       1.46099625       0.49391154
C        1.73034053       0.58923712      -0.01704673
C        1.37535970      -0.82113974       0.47130536
C       -0.17557123      -0.88331433       0.46986267
C       -0.80952228      -1.26114507      -0.89375537
O       -1.17581429      -0.04052775      -1.52437227
C       -1.64915428       0.80215534      -0.48756009
C       -0.65917494       0.57931343       0.67545052
H        2.70247614       0.96782707       0.30394478
H        1.69602307       0.64206873      -1.11394160
H        1.74481373      -0.96082400       1.49327372
H        1.81753008      -1.61275553      -0.13980079
H       -0.53276911      -1.56050314       1.24826620
H       -1.70067445      -1.88941252      -0.73591787
H       -0.12893192      -1.79322934      -1.56455091
H       -2.66889249       0.51697446      -0.18160525
H       -1.66556098       1.83131564      -0.85399625
H       -1.11493934       0.78842832       1.64539805
