18
Properties=species:S:1:pos:R:3 047844=T pbc="F F F"
O       -0.40638804       2.70035741      -0.69165103
C       -0.36928787       1.49363264      -0.72657384
C        0.98002868       0.76501905      -0.76146694
C        1.37172612       0.00436209       0.53044766
C        0.89337457      -1.44826166       0.56489733
O       -0.47156430      -1.57530133       0.14732763
C       -1.37007644      -0.89992528       0.92394704
N       -1.99825287       0.12856795       0.55630020
C       -1.67883256       0.68097676      -0.76626958
H        1.71699784       1.54734810      -0.95544671
H        0.98924500       0.06904336      -1.60962389
H        1.00608055       0.55083986       1.40644987
H        2.46398286      -0.01219698       0.61594592
H        1.02826147      -1.87953242       1.56725590
H        1.45539606      -2.05926433      -0.14652066
H       -1.54587096      -1.33227738       1.91224358
H       -1.59284679      -0.10880841      -1.52174935
H       -2.47197332       1.37542055      -1.04551314
