11
Properties=species:S:1:pos:R:3 048233=T pbc="F F F"
O        0.08034477       0.04928466      -0.00193556
C        0.04199088      -1.14847045      -0.00830350
N       -1.18568881      -1.87756449      -0.00073998
C       -2.40405669      -1.14053025       0.01476128
O       -3.48865474      -1.64602674       0.02215130
C       -1.10954801      -3.28366337      -0.00911766
O       -0.05752182      -3.87262538      -0.02166204
C       -2.36207458      -4.03975583      -0.00123538
N       -3.22704561      -4.80611990       0.00288304
H        0.91206417      -1.81569864      -0.01995078
H       -2.19954560      -0.06240593       0.01850409
