19
Properties=species:S:1:pos:R:3 048361=T pbc="F F F"
O       -0.02184430       0.03178832      -0.65632521
C       -0.26464747      -0.73986229       0.24197553
C       -1.21022000      -1.88247888       0.14582838
C       -1.46495948      -2.43686143      -1.24675633
C       -2.51078519      -1.59135086      -0.60786333
C       -1.26023234      -2.79988214       1.34641471
C       -0.17798974      -3.89849946       1.50338735
C       -1.37655818      -4.86305463       1.56258578
O       -2.30229870      -3.79633959       1.24842383
H        0.22496364      -0.61998046       1.23612532
H       -1.65345457      -3.50219783      -1.31054256
H       -0.87147810      -2.00073705      -2.04170926
H       -2.63509553      -0.57443599      -0.96113533
H       -3.39581794      -2.08437524      -0.22433684
H       -1.39042790      -2.19857938       2.25952587
H        0.44772519      -3.84029375       2.39465203
H        0.45231359      -4.01905883       0.62052482
H       -1.57825796      -5.29058590       2.55253897
H       -1.40885655      -5.66313340       0.81529509
