17
Properties=species:S:1:pos:R:3 049768=T pbc="F F F"
O        0.94384386       2.90031570       0.59737126
C        0.94300368       1.69836391       0.54479587
C       -0.30354478       0.82632890       0.56039035
C       -0.26861112      -0.14593778       1.72011852
C       -0.11784244      -1.41017646       1.32435849
C       -0.05291136      -1.54665648      -0.17450862
C       -0.34391848      -0.12158773      -0.65922947
C       -0.13277268       0.33567562      -2.03838502
O       -1.44530925       0.05026870      -1.54708676
H        1.89430875       1.11999248       0.48340916
H       -1.17600432       1.48684535       0.56154094
H       -0.33933217       0.18929203       2.74806541
H       -0.05622179      -2.26425890       1.98912892
H       -0.79761540      -2.24178278      -0.57904641
H        0.93020217      -1.90234961      -0.50980658
H        0.25065482      -0.36132497      -2.78277559
H        0.07207053       1.38699202      -2.23834048
