14
Properties=species:S:1:pos:R:3 050442=T pbc="F F F"
O        0.48608918      -0.71224278       0.77222953
C       -0.13324469      -0.99776687      -0.21824718
C       -1.32967327      -1.94387493      -0.19350873
C       -1.52817979      -2.63487124       1.16361971
N       -2.52266713      -3.69632199       1.11419217
C       -2.68448444      -4.28862411       0.01959738
O       -2.01214434      -4.07174569      -1.17397487
C       -1.24639285      -2.94333832      -1.33552099
O       -0.61045017      -2.80529967      -2.33787380
H        0.11968031      -0.58767448      -1.21417308
H       -2.21680702      -1.32876656      -0.41915296
H       -1.82623377      -1.90171566       1.91543548
H       -0.57720697      -3.05531091       1.51362788
H       -3.39190865      -5.10204175      -0.10995760
