16
Properties=species:S:1:pos:R:3 051144=T pbc="F F F"
N       -0.58372809      -3.35465556       0.33819276
C       -0.65330800      -2.10578201       0.19656734
O        0.50441680      -1.38453701       0.15721166
C        0.35388783      -0.01481950       0.11747397
C        0.54302788       0.86680720       1.35264296
C        1.43846129       1.03695865       0.15523860
N        0.75852371       1.76086917      -0.93190944
C       -0.29409116       0.80168714      -0.97076228
N       -1.34409755       0.63322438      -1.64677733
H       -1.51968711      -3.75509089       0.32575065
H       -1.54987235      -1.49114022       0.07163095
H        0.97918688       0.32727388       2.18843250
H       -0.18205395       1.63155742       1.61713715
H        2.51255035       0.91048216       0.15258021
H        0.53335314       2.74412004      -0.81102369
H       -1.49656967       1.39304513      -2.31238602
