19
Properties=species:S:1:pos:R:3 051432=T pbc="F F F"
O        0.07024767      -0.01256035      -0.03079786
C        0.04495699      -1.20674023      -0.02360855
O       -1.10037373      -1.91058490      -0.00915304
C       -1.02028792      -3.33495499      -0.04566409
C       -1.66177913      -3.96165669      -1.31639186
C       -3.03491968      -3.68135879      -0.63104456
C       -2.22777357      -4.00078849       0.66523853
C       -1.88884247      -5.49120869       0.47687787
C       -1.45565072      -5.46080747      -1.03229617
H        0.94633621      -1.85047396      -0.01894761
H       -0.01093434      -3.65835966       0.23619520
H       -1.41905513      -3.58897703      -2.31146004
H       -3.87101454      -4.33904338      -0.88337833
H       -3.33337311      -2.63606582      -0.69496309
H       -2.54931984      -3.66629165       1.65103191
H       -2.75691974      -6.13109562       0.65378674
H       -1.08483428      -5.82701442       1.13830652
H       -0.41861723      -5.77774131      -1.17758270
H       -2.08815738      -6.08727192      -1.66628155
