15
Properties=species:S:1:pos:R:3 051723=T pbc="F F F"
O       -0.44868459       0.08437950       0.15715507
C       -0.28920410      -1.09538514       0.19979395
O       -1.20895826      -1.97285401      -0.25852214
C       -0.92696363      -3.37357272      -0.15318669
C       -1.13003502      -4.03140693      -1.52874055
O       -2.49172869      -4.46435600      -1.57243434
C       -3.04277782      -4.51149708      -0.32471365
O       -4.16067826      -4.87850810      -0.12894149
C       -1.99976539      -4.05338169       0.69284351
H        0.61144309      -1.59472933       0.60862257
H        0.09085447      -3.51639310       0.22250165
H       -0.47210617      -4.89888925      -1.65511209
H       -0.96191459      -3.32462524      -2.34313050
H       -2.44416004      -3.39577076       1.43968753
H       -1.60648292      -4.93872541       1.20323634
