16
Properties=species:S:1:pos:R:3 052059=T pbc="F F F"
O        0.17454513      -0.05091521      -0.23171851
C       -0.02053336      -1.17541507       0.14213275
C       -1.40742007      -1.78011819       0.27443159
O       -1.27228606      -3.02121643       0.95001831
C       -2.46383210      -3.71914786       1.12658978
C       -3.36710594      -3.33541735       2.28744815
C       -2.53120688      -4.58511649       2.35704226
C       -3.07750671      -4.19145200      -0.09864661
N       -3.55685424      -4.54458095      -1.09023530
H        0.80180010      -1.87251372       0.41378023
H       -1.82919778      -1.91745425      -0.73319412
H       -2.06200081      -1.08592417       0.81961663
H       -4.43847729      -3.42675619       2.15532990
H       -3.03973944      -2.47861814       2.86503767
H       -1.64060031      -4.56539744       2.97380789
H       -3.01955853      -5.54793562       2.27145036
