17
Properties=species:S:1:pos:R:3 053475=T pbc="F F F"
C       -1.36314813      -3.80757218       0.00937407
C       -1.22997379      -2.35856655      -0.00312278
C       -1.11183089      -1.16174348      -0.01386828
C       -0.96006181       0.28196901      -0.02518894
C        0.49829296       0.77420457      -0.03567177
O        1.43938415       0.05533304      -0.22352162
C        0.63125565       2.28825775       0.22249008
C        1.94935330       2.83273218      -0.04834564
C        3.03640529       3.28925585      -0.27391154
H       -1.96546626      -4.16000834      -0.83513576
H       -1.84481006      -4.15629566       0.92948246
H       -0.38283433      -4.29181728      -0.05680190
H       -1.47326820       0.74355075       0.83023851
H       -1.44232399       0.71908979      -0.91298055
H        0.35550223       2.45392696       1.27447375
H       -0.13719028       2.81291858      -0.36101442
H        4.00071419       3.68476501      -0.47649568
