19
Properties=species:S:1:pos:R:3 053706=T pbc="F F F"
C       -0.81775025      -3.35185368      -1.37232805
C       -0.89001928      -2.28654391      -0.38228848
C       -0.96593360      -1.41005169       0.44127209
C       -1.00123327      -0.32726110       1.43260070
N        0.12836327       0.61009107       1.38464547
C        0.23523292       1.33496474       0.12416461
C        1.36663106       2.37288854       0.23150071
C        1.51213604       3.16488203      -0.98660526
N        1.61316032       3.78413173      -1.95690918
H       -1.27370207      -3.04779028      -2.32079666
H       -1.34045972      -4.24986409      -1.02516712
H        0.22061117      -3.63366476      -1.57868416
H       -1.03744797      -0.75202071       2.44271282
H       -1.92365354       0.25546528       1.31365575
H        0.98472325       0.08426320       1.53938852
H       -0.71253795       1.85638490      -0.05123607
H        0.40869325       0.68623272      -0.74854551
H        2.32069677       1.87080719       0.43419855
H        1.17248960       3.03893884       1.07842128
