17
Properties=species:S:1:pos:R:3 055434=T pbc="F F F"
N       -1.67346507      -1.99535479      -0.19071900
C       -1.71411396      -0.64920179      -0.06781506
O       -2.72415172       0.03014434      -0.01813454
N       -0.45278326      -0.01677919      -0.02893018
C       -0.39632639       1.43421792       0.14118154
C        1.08991762       1.72816028      -0.10939556
N        1.70629829       0.45872800       0.27404122
C        0.80995711      -0.58876186       0.09142874
N        1.03700446      -1.84902320       0.06113157
H       -2.55363995      -2.47582887      -0.13152126
H       -0.77939734      -2.47473326      -0.11512480
H       -0.70050399       1.71643741       1.15566627
H       -1.06413080       1.93116480      -0.56159853
H        1.45916609       2.55323237       0.50446169
H        1.27117471       1.97101198      -1.16592272
H        2.65921696       0.28245733      -0.00497557
H        2.02577723      -2.05587147       0.16622621
