16
Properties=species:S:1:pos:R:3 056372=T pbc="F F F"
N        0.20076838      -1.53691259      -0.10604838
C       -0.03585188      -0.08313051      -0.02121464
C       -0.75059379       0.36051524      -1.22710262
C       -1.36321283       0.72779932      -2.19219363
C        1.29416449       0.57583815       0.00789051
N        2.32687297       1.08739760       0.07697316
C       -0.79434489       0.33035165       1.26136735
C       -2.27492219       0.29271805       1.30866217
N       -1.55034592       1.57537565       1.36915280
H       -0.70132227      -2.00543878      -0.08852753
H        0.71168625      -1.83724071       0.72060723
H       -1.88426309       1.04613248      -3.06242774
H       -0.22683538       0.07494892       2.15434069
H       -2.77425159       0.00128997       2.22784509
H       -2.80698651       0.04653057       0.39412171
H       -1.59670901       2.03058214       0.45879270
