20
Properties=species:S:1:pos:R:3 056214=T pbc="F F F"
O       -1.86907517      -1.26810073       1.06079237
C       -2.50713535      -1.00198348      -0.08851742
O       -3.63496656      -1.36644995      -0.29269561
C       -1.68678782      -0.23303716      -1.13284560
C       -0.71000625       0.80334662      -0.56166319
N        0.28405781       0.17317575       0.30248327
H       -0.96825643      -0.85030325       1.02453874
C        1.42254321      -0.55861555      -0.31730557
C        2.34351132      -0.00385403       0.79498118
C        1.22900034       1.03760917       1.05329962
H       -2.39372661       0.24216755      -1.81546860
H       -1.13005612      -0.97324837      -1.72310175
H       -1.25622399       1.53543246       0.04513998
H       -0.22884166       1.35820761      -1.38546790
H        1.67811416      -0.16093427      -1.31069027
H        1.28804480      -1.64115972      -0.38859598
H        3.31778514       0.37573780       0.48903377
H        2.46828698      -0.70172014       1.62436424
H        0.93343617       1.24454854       2.08541621
H        1.42029605       1.98918117       0.53630252
