22
Properties=species:S:1:pos:R:3 056030=T pbc="F F F"
N       -1.11552830      -3.41313487       0.31451861
C       -1.20516962      -2.07307287       0.56523055
O       -2.27100393      -1.52544859       0.77429657
C        0.13542796      -1.33769434       0.60049753
C       -0.00557199       0.16738910       0.38737416
C       -0.42103395       0.58881308      -1.03244556
C       -0.12611208       2.10211909      -1.07549383
C        1.04275415       2.33175050      -0.06950171
C        1.29518789       0.96108583       0.60521397
H       -1.96450367      -3.95365311       0.29072554
H       -0.24537337      -3.86427795       0.09516254
H        0.82126082      -1.76953487      -0.14079623
H        0.58405776      -1.53825990       1.58359677
H       -0.77144602       0.52832457       1.08434555
H       -1.46300685       0.34677623      -1.25367969
H        0.20439654       0.05899019      -1.76493262
H       -1.01096317       2.66333008      -0.75861932
H        0.11764979       2.44690658      -2.08417134
H        0.76409655       3.08350759       0.67502156
H        1.94381112       2.70487363      -0.56434076
H        2.12403125       0.44122175       0.10624280
H        1.56703912       1.04998828       1.66175490
