16
Properties=species:S:1:pos:R:3 057084=T pbc="F F F"
N        0.12862420      -1.40635817      -0.06067125
C       -0.02984651       0.04978102      -0.02347637
C       -0.66836641       0.53107126       1.21835637
N       -1.16643130       0.82455449       2.21933190
C       -0.81704904       0.51052813      -1.26922200
C       -0.11016755       0.11448997      -2.59213604
O        0.11956508       1.38471460      -3.25464323
C       -0.37500639       2.32043165      -2.41726428
N       -0.91126764       1.97747397      -1.32013207
H       -0.76839681      -1.85387297       0.10983738
H        0.74423825      -1.70919422       0.68784785
H        0.96868244       0.49918277      -0.07845711
H       -1.82642088       0.08733545      -1.20406777
H       -0.72502279      -0.50458633      -3.24803527
H        0.85056739      -0.37952572      -2.43228460
H       -0.26794819       3.34055963      -2.76914805
