21
Properties=species:S:1:pos:R:3 057491=T pbc="F F F"
C        0.26964316      -1.99692684      -0.81806416
C        0.23838583      -0.46100453      -0.80172006
C       -0.40981089       0.08433574      -2.07467216
O        1.56791723       0.05349363      -0.76861796
C       -0.51303972       0.03530338       0.45072791
C       -0.63107303       1.55634400       0.60435149
O       -0.60907698       1.73446998       2.01632481
C        0.29754177       0.77992030       2.49159878
O        0.24722128      -0.33798648       1.61195432
H       -0.73774946      -2.41572321      -0.91391758
H        0.70811965      -2.38114770       0.10731829
H        0.87258710      -2.34324499      -1.66186100
H        0.11866148      -0.29818165      -2.95214322
H       -0.36135418       1.17617985      -2.10441549
H       -1.45755138      -0.22406036      -2.14314604
H        1.92288737      -0.20575870       0.09137109
H       -1.50359201      -0.43780325       0.50451227
H       -1.56671411       1.96962621       0.22513924
H        0.22234327       2.05644704       0.12612930
H       -0.00390732       0.48156754       3.50212151
H        1.32856094       1.17415005       2.50700866
