21
Properties=species:S:1:pos:R:3 057592=T pbc="F F F"
C       -0.33875491      -1.60127153       0.09298565
C       -0.04971194      -0.08189312       0.07376318
C       -0.40231980       0.50884049      -1.29568502
C        1.44354960       0.10119966       0.33549550
O        2.22392924       0.62852863      -0.41498660
C       -0.80121073       0.57341607       1.25648315
O       -0.52713145      -0.04058405       2.49864659
C       -2.22573919       1.02991635       1.12974294
C       -1.11447739       2.04635429       1.30992072
H       -1.40863747      -1.77382883      -0.06009547
H       -0.06254515      -2.04479718       1.05164495
H        0.20821256      -2.11092586      -0.70621268
H        0.20970233       0.03278192      -2.06562408
H       -0.19551615       1.57994612      -1.34958577
H       -1.45243848       0.33486957      -1.54350247
H        1.79016905      -0.31537721       1.30922266
H        0.23884975       0.39230099       2.88879926
H       -2.85950775       0.82560360       1.98449637
H       -2.72089496       0.97808072       0.16802244
H       -0.85345876       2.67827492       0.46976832
H       -1.03052014       2.52531996       2.27955364
