22
Properties=species:S:1:pos:R:3 058205=T pbc="F F F"
C        0.50419591      -0.24424627       2.03102575
C        1.11922323      -0.39420048       0.63760303
O        2.48382511       0.01315174       0.63487526
C        0.34878007       0.31945763      -0.50547406
C        0.33597590       1.84574922      -0.34269082
C       -1.09264163      -0.24045873      -0.69174670
C       -1.16540023      -1.77298323      -0.86439976
C       -1.73271073       0.40095087      -1.84715398
N       -2.23116613       0.89382508      -2.76654279
H        0.45022340       0.80638055       2.33770260
H        1.12214839      -0.77591328       2.75931347
H       -0.50849511      -0.65666368       2.08177612
H        1.16838738      -1.46037046       0.39478629
H        2.53631120       0.89024830       1.02848015
H        0.90653570       0.08403939      -1.42040333
H        1.35478099       2.23401719      -0.25584124
H       -0.22895936       2.15928286       0.54199235
H       -0.11950304       2.32617576      -1.21214823
H       -1.69067278       0.04033395       0.18542478
H       -0.51312164      -2.10294571      -1.67808640
H       -2.18599731      -2.08309898      -1.10076383
H       -0.86171932      -2.28273171       0.05227134
