21
Properties=species:S:1:pos:R:3 058678=T pbc="F F F"
C       -2.60554182       0.81596998      -2.21657051
C       -1.46432661       1.15404376      -1.24261153
C       -0.21981130       0.28519898      -1.48950714
C       -1.93472468       1.06464434       0.20146031
O       -2.70763905       2.17666683       0.70981681
C       -1.42886976       1.95231194       1.28616098
C       -0.35935447       2.99977915       1.10619540
C       -2.49042323      -0.23455195       0.71680552
O       -2.37049734      -1.31256808       0.19197642
H       -3.47901422       1.44789631      -2.02826837
H       -2.90695757      -0.23030686      -2.12324670
H       -2.28253869       0.98537116      -3.24844728
H       -1.19418842       2.20137434      -1.41140997
H       -0.44802229      -0.77224090      -1.34206239
H        0.59880606       0.55693744      -0.81469981
H        0.13469982       0.42166754      -2.51603072
H       -1.48179813       1.55154130       2.30251222
H       -0.31559365       3.37796903       0.08422249
H        0.61902792       2.58812127       1.37413670
H       -0.56042733       3.84456022       1.77320774
H       -3.05229461      -0.10360334       1.66944079
