22
Properties=species:S:1:pos:R:3 059570=T pbc="F F F"
C       -0.18245833      -1.30448764       0.35053047
C        0.15307155       0.17936534       0.19126121
O       -0.75921877       0.78439469      -0.72878343
C        1.61434978       0.42922246      -0.24513546
C        2.67589957      -0.01048955       0.81161453
C        3.11448451       1.26639342       1.50258793
N        1.97610303       2.07782008       1.99074489
C        2.64501336       2.43064386       0.71657839
C        1.90048918       1.93843371      -0.50812245
H       -1.23903903      -1.41825359       0.60784174
H        0.41311537      -1.78573958       1.13119400
H       -0.00003162      -1.84626607      -0.58738336
H       -0.01878256       0.70407729       1.13527285
H       -0.67004417       0.32312942      -1.57077994
H        1.76360636      -0.14117422      -1.17188650
H        3.54268402      -0.46561466       0.31869135
H        2.28546895      -0.74751754       1.51944325
H        4.04494939       1.28436537       2.06162035
H        2.30288018       2.70414980       2.72234057
H        3.21283493       3.35471255       0.66885074
H        0.97313238       2.48287728      -0.70075757
H        2.54661679       2.06159550      -1.38544203
