22
Properties=species:S:1:pos:R:3 059092=T pbc="F F F"
C        0.49636699      -1.45374194       0.06284555
C        0.16206662       0.03928627      -0.06992662
C        1.44183412       0.86264970      -0.29198385
C       -0.58557272       0.56225033       1.16088892
C       -2.09257835       0.19039181       1.44604095
C       -2.89323450      -0.58978036       0.41115174
N       -2.35863717       1.63588065       1.44750425
C       -1.08494587       2.03188071       1.13538592
O       -0.59476771       3.11303057       0.93037486
H       -0.39651359      -2.07191656       0.19310203
H        1.15100988      -1.62685280       0.92531216
H        1.02219880      -1.81216608      -0.82825710
H       -0.47977540       0.17446529      -0.95031320
H        2.13890149       0.72513239       0.54353310
H        1.21930002       1.92900778      -0.36731715
H        1.95187840       0.54005207      -1.20549059
H        0.02967211       0.39511108       2.05311876
H       -2.23209940      -0.25900816       2.43682954
H       -2.73731080      -0.19859751      -0.59791478
H       -3.96335166      -0.51934541       0.63587349
H       -2.62741415      -1.65066113       0.42184301
H       -3.20789937       2.16524656       1.58242377
