23
Properties=species:S:1:pos:R:3 059470=T pbc="F F F"
C        0.35374961      -1.39264359      -0.27019562
C       -0.18246250      -0.03861602       0.21698082
C       -1.05608770      -0.18735816       1.47086903
C       -0.96915802       0.63378914      -0.88926474
O       -0.23629195       1.17605970      -1.99474413
C       -0.98257390       2.08033696      -1.16618130
C       -0.22485030       3.10916216      -0.39833701
C       -0.99054192       4.21403063       0.29431397
C       -0.16479790       4.52426817      -0.92473945
H       -0.46922303      -2.07328411      -0.51907680
H        0.96215879      -1.87443053       0.50192631
H        0.96969795      -1.26591367      -1.16498196
H        0.67638745       0.59659804       0.46047439
H       -1.94457984      -0.79486911       1.26156102
H       -1.39578702       0.78585724       1.83905657
H       -0.50198406      -0.68088918       2.27545129
H       -1.85754485       0.07054259      -1.19352116
H       -1.87797323       2.47689816      -1.65387685
H        0.66715332       2.74807531       0.10057133
H       -0.63633959       4.54847465       1.26271968
H       -2.07091664       4.22233960       0.19158121
H       -0.68658069       4.73896903      -1.85152752
H        0.76069344       5.07429670      -0.79792868
