25
Properties=species:S:1:pos:R:3 059526=T pbc="F F F"
C        0.21956039      -1.46211396      -0.03324143
C       -0.01673761       0.05198752       0.05299051
C       -0.77165876       0.41967842       1.33777608
C       -0.74902481       0.56789301      -1.18453576
C       -0.03257739       0.48373095      -2.56878045
C       -0.53257796       1.90366940      -2.86134428
C       -1.39499770       2.29760590      -4.02554539
C       -0.01589731       2.89875683      -3.85349829
C       -0.88911752       2.10966524      -1.38409579
H       -0.73329572      -2.00466874      -0.05968291
H        0.78283322      -1.82514981       0.83292579
H        0.78059773      -1.73129855      -0.93391500
H        0.96575553       0.54739519       0.08334317
H       -1.75942056      -0.05660889       1.35960906
H       -0.92190756       1.50085660       1.42093531
H       -0.22509310       0.08835043       2.22704808
H       -1.73566758       0.09230954      -1.24516757
H       -0.34784047      -0.30993848      -3.25207366
H        1.05782873       0.43787488      -2.46067375
H       -2.25533063       2.93249266      -3.83630406
H       -1.54105180       1.57660536      -4.82422722
H        0.76720648       2.58346134      -4.53636420
H        0.05328403       3.93867171      -3.54893359
H       -0.11420321       2.66269297      -0.83962843
H       -1.86008141       2.56068513      -1.16048531
