15
Properties=species:S:1:pos:R:3 061490=T pbc="F F F"
O        1.44627956      -0.75358004      -1.33862311
C        0.47420443       0.26657122      -1.34705166
C        0.22501505       0.88577841       0.05195731
C        0.17633641      -0.20479573       1.14581345
O       -0.48382794      -1.39131380       0.73253273
C       -0.39800922       0.33634595       2.39085829
N       -0.86731369       0.77134554       3.35263603
C       -0.80300987      -0.20159827      -1.93061680
N       -1.81351706      -0.56807419      -2.35572559
H        1.05044401      -1.51481865      -0.89170810
H        0.86066899       1.05048259      -2.00669579
H       -0.70393094       1.46401216       0.03648107
H        1.03829013       1.57666511       0.29135904
H        1.20027829      -0.52404208       1.36171769
H       -1.40190814      -1.19297821       0.50706543
