19
Properties=species:S:1:pos:R:3 061210=T pbc="F F F"
C        0.02068714      -1.55693114       0.03712131
C       -0.07910350      -0.02662890      -0.01893952
C       -0.74572602       0.51264645       1.27730830
C       -0.75356875       1.97067818       1.34273551
N       -0.74198017       3.12529213       1.38201326
N       -0.74279338       0.45193765      -1.22106859
C       -2.09588700       0.02305578      -1.54154459
C       -0.10285167       1.31445315      -2.07514790
O       -0.56214624       1.74949879      -3.10684527
H       -0.96164504      -2.02505866       0.15107516
H        0.63756183      -1.86650819       0.88584092
H        0.47888487      -1.93964939      -0.87833810
H        0.93620623       0.38248914      -0.05306879
H       -0.20496325       0.12376538       2.14680858
H       -1.77431189       0.14473119       1.35879461
H       -2.14862116      -1.05830497      -1.70549315
H       -2.38352239       0.53621573      -2.45905457
H       -2.80161630       0.29373963      -0.74849429
H        0.91012514       1.57340332      -1.71208729
