19
Properties=species:S:1:pos:R:3 062825=T pbc="F F F"
C        0.75756577      -1.77799992       0.42108891
C        0.60157262      -0.26278809       0.41764665
O        1.87877396       0.33235775       0.55187923
C       -0.58767066       0.42278292       1.18305688
C       -1.53587665      -0.07091641       0.04881486
C       -0.27140973       0.45426982      -0.68038994
C       -0.32556836       1.68169376       0.30221239
C        0.00223247       0.48666312      -2.14310648
O       -0.74386895       0.04728372      -2.98480414
H       -0.17679879      -2.31941112       0.27548003
H        1.17328812      -2.10175460       1.38430336
H        1.45888932      -2.08142466      -0.36192276
H        2.35377050      -0.13177689       1.24833153
H       -0.78134316       0.40103406       2.25702239
H       -2.43321523       0.53099855      -0.10261431
H       -1.76708099      -1.13252326      -0.02045894
H        0.60161107       2.22309113       0.46947320
H       -1.17953410       2.34617743       0.15553279
H        0.97466279       0.95224270      -2.42154564
