21
Properties=species:S:1:pos:R:3 063951=T pbc="F F F"
C        0.17053030      -1.58503690       0.03450257
C        0.01193097      -0.06813324      -0.03012090
C        1.37621865       0.62571066      -0.06010265
O       -0.71207232       0.39129736       1.14885315
C       -1.79246102       1.16731286       0.64160603
C       -2.90484743       0.22018779       0.15056092
C       -2.27087281      -0.26215403      -1.19037344
C       -0.92051532       0.48173745      -1.14859135
O       -1.29852111       1.73986287      -0.55629838
H       -0.78349682      -2.08632259       0.20885596
H        0.84124697      -1.85241870       0.85639878
H        0.60610482      -1.97214905      -0.89310396
H        1.90404810       0.44099802       0.87997974
H        1.25011701       1.70354617      -0.17999312
H        1.99342936       0.24495966      -0.88133457
H       -2.06550555       1.93865833       1.36177528
H       -3.84180213       0.75951418      -0.00955914
H       -3.08127166      -0.58426128       0.86686347
H       -2.84930362       0.08181865      -2.05042808
H       -2.17149400      -1.34561349      -1.26382466
H       -0.43179257       0.65114120      -2.10748900
