21
Properties=species:S:1:pos:R:3 064339=T pbc="F F F"
C        0.01147126      -1.54087582       0.01785920
C        0.02796402      -0.00591874       0.01781366
C        1.47976888       0.50343789      -0.06682017
C       -0.67180549       0.52869789       1.28942690
N       -1.02861703       1.93824901       1.23221078
C       -1.92745742       2.21311646       0.11481887
C       -1.59521112       1.53187793      -1.21519378
O       -2.10304438       1.88658688      -2.26365247
N       -0.73461955       0.47217996      -1.14344883
H       -1.01508920      -1.91740518       0.04481873
H        0.54955758      -1.93367073       0.88644136
H        0.49741017      -1.93858058      -0.88023982
H        2.08254723       0.11199233       0.75934725
H        1.51814702       1.59687480      -0.03627729
H        1.94636061       0.18596410      -1.00490726
H       -0.02493273       0.35143271       2.15470204
H       -1.59526089      -0.04235692       1.45067172
H       -0.19325183       2.50812465       1.15357661
H       -1.98060906       3.28794219      -0.07213976
H       -2.94444184       1.89481105       0.38408673
H       -0.51735942       0.06662053      -2.04498275
