15
Properties=species:S:1:pos:R:3 065914=T pbc="F F F"
O        0.01235744      -1.49791796       0.25059934
C        0.07554558      -0.10234534       0.11883045
C       -0.45445744       0.56043234      -1.18415976
O        0.78196564       1.26112057      -1.37191147
C        1.41305275       0.55765178      -0.27821076
C       -0.57413474       0.45423966       1.37823613
O       -0.06093647       1.24653388       2.12871041
C       -2.02059562       0.01498458       1.65411463
O       -2.75976045      -0.39042552       0.79747216
H        0.04843555      -1.89740905      -0.62499257
H       -1.31551806       1.23165439      -1.10608123
H       -0.65414240      -0.18059401      -1.97410996
H        2.16163221      -0.16803696      -0.62057023
H        1.85076435       1.23774251       0.45762279
H       -2.33529768       0.19373762       2.70351049
