21
Properties=species:S:1:pos:R:3 065269=T pbc="F F F"
C        0.12624756      -1.51138768       0.40048951
C        0.01813341      -0.01980068       0.15687656
C       -1.26094137       0.65251508       0.44402508
O       -0.89397360       0.33207870      -0.89887888
C        1.28842463       0.81862383       0.16554163
C        2.40645591       0.33285279      -0.80309808
C        3.55186253      -0.05854421       0.14267422
O        3.40457044       0.78985545       1.27105670
C        2.01459782       0.85855680       1.54032460
H       -0.85941426      -1.97381213       0.31146788
H        0.52142194      -1.73104710       1.39694196
H        0.78570605      -1.98596667      -0.33303831
H       -1.27392865       1.71537737       0.68426017
H       -2.09294370       0.07943770       0.85201100
H        0.98869783       1.83009053      -0.11821834
H        2.71740997       1.15424386      -1.45274574
H        2.08660145      -0.48978284      -1.44665762
H        4.54924259       0.10515975      -0.27294977
H        3.47154574      -1.11782732       0.44023963
H        1.70418804       0.01240178       2.17402479
H        1.82663790       1.78071025       2.09614758
