15
Properties=species:S:1:pos:R:3 065456=T pbc="F F F"
O        0.08764226      -1.36932634       0.03558167
C       -0.01406149       0.02425146      -0.01339320
C        0.45123632       0.73307401      -1.28094630
C        1.32490377       0.73370796      -0.05408399
N        2.48585298      -0.08718784       0.03014273
C        3.69106926       0.41687965       0.42391764
O        3.91590366       1.58848860       0.63122554
C       -1.09990089       0.58706738       0.75709018
N       -1.98366238       1.02880484       1.35828310
H       -0.63246642      -1.75160792      -0.47928322
H       -0.04050433       1.65603281      -1.56506621
H        0.73147284       0.07355336      -2.09495800
H        1.43505999       1.66261097       0.49137272
H        2.35204622      -1.08581069      -0.02334393
H        4.45245947      -0.38002171       0.52399380
