17
Properties=species:S:1:pos:R:3 065627=T pbc="F F F"
N       -0.10194704      -1.56419843       0.34181030
C        0.00165932      -0.13146291       0.09727274
C       -0.14720523       0.28096245      -1.41290068
C        1.27821594       0.88101620      -1.39058197
O        2.28383107      -0.04491363      -1.83024751
C        2.53429141      -0.48871299      -0.47198230
C        1.46003988       0.45687592       0.09115889
C       -0.87664327       0.65836491       0.97442355
N       -1.57166032       1.24949800       1.68609320
H       -1.03286207      -1.88881827       0.09423405
H        0.02171866      -1.76569510       1.33095164
H       -0.95183080       0.99449936      -1.59752549
H       -0.24007194      -0.57639732      -2.08174326
H        1.42376804       1.88764582      -1.78774193
H        3.55404949      -0.23940991      -0.15646132
H        2.34999078      -1.55871428      -0.34210310
H        1.72735446       1.12168236       0.90957828
