17
Properties=species:S:1:pos:R:3 066121=T pbc="F F F"
O        0.06637724      -1.39681472       0.00533593
C       -0.00870640       0.01365894      -0.02116434
C       -0.64265032       0.59951228      -1.31882047
C        0.02182287       1.97870288      -1.51790070
C        1.40093480       1.80469176      -0.90175785
N        2.04755289       0.54510219      -1.32327201
C        1.39099355       0.62267962      -0.00741020
C       -0.74218571       0.50170629       1.17259777
N       -1.33632681       0.86661277       2.09466835
H       -0.82889797      -1.75233152      -0.03151417
H       -1.73199135       0.65007219      -1.26244376
H       -0.36019190      -0.08084795      -2.12386908
H       -0.52095277       2.76033672      -0.97514139
H        0.06001808       2.26760292      -2.57230598
H        2.01681062       2.67084025      -0.68460440
H        3.05319996       0.60968277      -1.18928545
H        1.97768994       0.55687823       0.90140130
