19
Properties=species:S:1:pos:R:3 066996=T pbc="F F F"
C       -0.13919314      -2.33171026       0.03459101
C       -0.10759018      -0.82518804      -0.02458522
C        0.24790690      -0.07291777       1.27728767
C       -0.02860825       1.42450849       1.19590434
C        0.63428494       1.41805170      -0.22107223
C       -0.43513160       1.24370559      -1.30003796
C       -1.03334896      -0.13420060      -0.98471493
O       -2.03062792      -0.61211884      -1.46912952
C        1.16892630      -0.02050748       0.08624307
H       -1.14355225      -2.67848970       0.29500822
H        0.56415168      -2.71725749       0.77875429
H        0.11712336      -2.76978242      -0.93530270
H        0.33882885      -0.66363344       2.18196374
H        0.57917373       1.97102742       1.92182477
H       -1.06553334       1.77303619       1.26236427
H        1.36529041       2.20047691      -0.41730034
H        0.00855285       1.19468074      -2.30285155
H       -1.20335111       2.02167934      -1.31286439
H        2.16269774      -0.42136034      -0.06608255
