21
Properties=species:S:1:pos:R:3 066379=T pbc="F F F"
C       -0.10792388      -1.54317348      -0.21471230
C       -0.00182294      -0.01835612      -0.08136082
C       -0.57239848       0.47707961       1.25596442
C       -0.75155458       2.00182418       1.27795725
C       -1.51262548       2.46445425       0.02947847
C       -0.81586277       1.93068666      -1.21936749
O       -0.70889964       0.50946727      -1.20315504
C        1.48559285       0.32540806      -0.24069513
O        2.25788652       0.52587797       0.65998447
H       -1.16404647      -1.82506200      -0.23828500
H        0.37969181      -2.03874788       0.62886279
H        0.35572626      -1.88585897      -1.14472782
H        0.09666028       0.15720808       2.05983836
H       -1.54122420      -0.01221640       1.41186972
H        0.23308106       2.48446031       1.30723206
H       -1.27604858       2.30365278       2.19024701
H       -1.56574417       3.55794488      -0.01937920
H       -2.54235626       2.08634096       0.05252837
H        0.18346671       2.38986726      -1.31040721
H       -1.37214554       2.17073789      -2.12982952
H        1.80783244       0.33560862      -1.30830889
