21
Properties=species:S:1:pos:R:3 067451=T pbc="F F F"
C        0.04018690      -1.51803302      -0.04443836
C       -0.02943127      -0.01265374       0.00946558
C       -0.62787906       0.84959285       1.18721247
C       -1.50077590       1.61027066       0.15137618
C       -0.85435888       0.81035071      -1.02248000
C        0.19478524       1.53999118      -1.84987218
O        1.31001169       1.75630343      -0.98518746
C        1.27563079       0.83855580       0.10155650
C        0.76726915       1.47047315       1.42872015
H       -0.95926485      -1.96596850      -0.00669208
H        0.61590666      -1.92379789       0.79542600
H        0.52251509      -1.85840556      -0.96912768
H       -1.14666280       0.41794600       2.04427405
H       -1.37249890       2.69709550       0.12088270
H       -2.56625622       1.39384888       0.26046734
H       -1.56197737       0.25142712      -1.63885572
H       -0.14108451       2.51523225      -2.22092977
H        0.49659723       0.93170680      -2.71789759
H        2.22892348       0.30181976       0.15323992
H        1.26129105       1.02644717       2.29827121
H        0.84182638       2.55947917       1.49165303
