19
Properties=species:S:1:pos:R:3 067457=T pbc="F F F"
O        0.03074542      -2.32318716      -0.18507394
C        0.05940140      -0.93698858      -0.09908483
C        1.40047183      -0.13429898      -0.16299517
C        0.97728471       0.60348522       1.13931823
C       -0.39124911      -0.15119105       1.16840510
C       -1.61450104       0.63080956       0.71159525
O       -1.44068168       0.87714756      -0.68865795
C       -0.51195750      -0.04304219      -1.24425247
C        0.91190166       0.55097672      -1.46216531
H       -0.88692021      -2.60798155      -0.26773061
H        2.37901250      -0.61237828      -0.16847089
H        0.91758050       1.69366097       1.07129011
H        1.60735457       0.34160636       1.99198537
H       -0.56422806      -0.74799968       2.06523910
H       -1.73076814       1.59955153       1.21045201
H       -2.53519991       0.04940167       0.88372668
H       -0.95875865      -0.55598721      -2.10244119
H        1.39026123       0.12489511      -2.34846388
H        0.96025047       1.64151999      -1.51267561
