20
Properties=species:S:1:pos:R:3 068747=T pbc="F F F"
C        0.18199659      -1.94456278       0.80843262
C        0.18134975      -0.44006516       0.70619949
C       -1.05835922       0.37142604       0.95536247
C       -0.44254842       0.34671083      -0.43809339
C       -1.18278349      -0.22287912      -1.62046319
C        0.47910741       1.49411317      -0.67392899
N        0.40148048       2.31241505      -1.63340030
O        1.43407637       1.53794482       0.30987494
C        1.47006333       0.29776340       1.03407227
H       -0.77136351      -2.36546543       0.47749877
H        0.34015938      -2.26799711       1.84385490
H        0.97581999      -2.38632073       0.19559804
H       -0.99338056       1.28218529       1.54306478
H       -1.99076685      -0.17268339       1.06658161
H       -1.83539948      -1.04853862      -1.32288022
H       -0.48925248      -0.58895782      -2.38378070
H       -1.79790763       0.55389258      -2.08300642
H        1.16877339       2.98515905      -1.59285834
H        2.34708751      -0.27850707       0.71025040
H        1.58184744       0.53436699       2.09762125
