16
Properties=species:S:1:pos:R:3 069721=T pbc="F F F"
O       -0.11650620      -1.37872904       0.31531442
C       -0.02947110      -0.02029012       0.12202407
C        0.21164671       0.87506932       1.29575747
C        1.16946479       0.95149547       0.12762504
N        0.56680481       1.69031864      -1.01440903
C       -0.57647118       0.72632549      -1.11175886
C       -1.58914807       1.89433434      -1.02710458
C       -0.33984952       2.77359694      -0.76109640
O       -0.13988698       3.89437548      -0.40298177
H        0.20513195      -1.82449986      -0.47701738
H        0.61253906       0.33087581       2.14543238
H       -0.43344053       1.70716764       1.56364635
H        2.23964354       0.81050738       0.20666345
H       -0.59298320       0.11430698      -2.01871216
H       -2.29592639       1.88235761      -0.19482737
H       -2.12590303       2.11498045      -1.95259963
