20
Properties=species:S:1:pos:R:3 070620=T pbc="F F F"
C        0.28446225      -1.42218748      -0.06822164
C        0.01878131       0.05865024      -0.03112007
N        0.40781145       0.92209903      -1.17756079
C       -1.02051582       0.74485733      -0.83630670
C       -1.55164264       1.88339408       0.00638011
O       -0.60418042       2.04963667       1.05956056
C        0.09204051       0.83734574       1.25716656
C        1.27347010       0.90998054       2.16388772
C        0.01146082       0.19292108       2.61913316
H       -0.37180581      -1.96583972       0.61792732
H        1.32116732      -1.64787640       0.20768858
H        0.11647441      -1.81728895      -1.07513732
H        0.62845334       0.32116609      -1.96997280
H       -1.68222950       0.20956720      -1.50973107
H       -2.54873278       1.62595387       0.39833463
H       -1.61671798       2.83590985      -0.52897113
H        1.48927260       1.87762791       2.60207231
H        2.14806413       0.31559395       1.92160200
H        0.03481528      -0.88753693       2.71230762
H       -0.60980911       0.70047016       3.34838300
