21
Properties=species:S:1:pos:R:3 071752=T pbc="F F F"
C        0.02272326      -1.55792605       0.04315597
C        0.01328253      -0.05057174       0.05748085
C       -0.49454431       0.79582000       1.24233735
C        0.30271942       1.94109654       0.57251939
C       -0.42320153       2.22968896      -0.75375927
C        0.69098212       2.56811589      -1.77627231
C        1.09724803       1.09673360      -1.58065406
C       -0.38690769       0.72405144      -1.24140331
C        1.28617201       0.86783784      -0.05109784
H       -0.99844518      -1.95829123       0.02186113
H        0.51937028      -1.96371657       0.93163896
H        0.54581879      -1.94663615      -0.83826391
H       -0.04394662       0.47268488       2.18688797
H       -1.57424809       0.92917943       1.37898756
H        0.66533531       2.79722937       1.14242955
H       -1.34934775       2.80354172      -0.70333162
H        1.40559902       3.35768759      -1.51808769
H        0.29098241       2.74803872      -2.77900113
H        1.72754368       0.54758672      -2.27954688
H       -1.11838718       0.36838771      -1.96628031
H        2.23814627       0.65807822       0.43490379
