18
Properties=species:S:1:pos:R:3 072075=T pbc="F F F"
C        0.00886812      -2.19370710      -0.05741831
C       -0.02917612      -0.69274913       0.00111644
C       -0.27059046       0.07305302       1.31049604
C       -0.24325367       1.48624916       0.69416929
N       -1.22714017       1.33446856      -0.40659823
C       -0.61866431       0.17131496      -1.06396202
C        0.90360732       0.18980797      -0.86303290
C        1.12591442       1.42194555      -0.04153852
O        2.07561502       2.15418254       0.04033728
H       -0.92480797      -2.61894025       0.32858506
H        0.83221185      -2.59396278       0.54414416
H        0.14055296      -2.55186593      -1.08318603
H        0.52084339      -0.07782612       2.05081380
H       -1.24104466      -0.16712784       1.75461133
H       -0.41286404       2.34486857       1.33829717
H       -1.18150748       2.14754481      -1.01969494
H       -1.07944800      -0.21594038      -1.96311527
H        1.62088380      -0.21131561      -1.56402433
