16
Properties=species:S:1:pos:R:3 072368=T pbc="F F F"
C        0.28986652      -1.45154902       0.05296134
C       -0.01621691       0.02545347       0.02626333
O        1.20330030       0.79831367       0.14668335
C        1.12403824       1.76105451      -0.80924241
N        0.11971959       1.81556364      -1.58268857
C       -0.77516181       0.73660123      -1.15443879
C       -1.90371294       1.20740116      -0.19078951
C       -1.13487405       0.55780046       0.97646966
O       -1.32599300       0.45582736       2.15020230
H       -0.62717386      -2.03420526      -0.07787198
H        0.73507331      -1.72934710       1.01247140
H        0.98677543      -1.71268224      -0.74898664
H        1.97727253       2.42967092      -0.83534986
H       -1.10021588       0.13057920      -2.00170293
H       -2.88672763       0.75524365      -0.35683930
H       -2.02177200       2.29220689      -0.12023626
