18
Properties=species:S:1:pos:R:3 074118=T pbc="F F F"
N       -0.00589327      -1.28591648       0.17665298
C        0.06945658       0.05848171      -0.00708576
C        1.18285855       0.83130961      -0.11445467
C        0.83089171       2.23308648      -0.31236745
O        1.57594103       3.18883209      -0.40568219
C       -0.70389682       2.31623415      -0.34360946
C       -1.36675943       2.75331856       1.00174231
C       -1.85529325       1.29534193       1.23396776
C       -1.19680060       0.86607498      -0.12486852
H       -0.88603327      -1.69369581       0.44354176
H        0.81595236      -1.79764722       0.45276066
H        2.20714731       0.48850361      -0.03969057
H       -1.04853813       2.84934410      -1.23057126
H       -2.17662649       3.47532020       0.88045763
H       -0.66719950       3.14634360       1.74246916
H       -2.94173752       1.18364613       1.24884904
H       -1.44530201       0.79574306       2.11535941
H       -1.88855374       0.43798746      -0.85590670
