17
Properties=species:S:1:pos:R:3 074246=T pbc="F F F"
C        0.45445703      -2.55253231      -0.29055291
C        0.37774840      -1.06190603      -0.20528952
C        0.26448122      -0.30274924       0.88833311
C        0.23438811       1.19234374       0.57640319
C       -0.89067984       1.90375955       1.17450963
C       -1.81057143       2.48982063       1.67837088
C        0.24406231       1.20665402      -0.96183024
O       -0.86294590       0.55675737      -1.57287955
C        0.37270103      -0.18216449      -1.42146957
H       -0.39208742      -2.95781844      -0.85829900
H        0.45249325      -3.01137840       0.70138016
H        1.36508397      -2.87393943      -0.81149251
H        0.15925890      -0.66724223       1.90354810
H        1.16640364       1.66144779       0.92730101
H       -2.63006139       3.00530740       2.11423165
H        0.64169067       2.06762960      -1.49122275
H        0.85357745      -0.47398954      -2.35104170
