23
Properties=species:S:1:pos:R:3 075484=T pbc="F F F"
C       -0.35395809      -2.80893640       0.43327315
C       -0.24398136      -1.31163352       0.53554131
C       -0.18920835      -0.66936308       1.70728967
C       -0.08252341       0.83025678       1.81491148
C        0.63982661       1.45584652       0.60754787
C        0.21227972       0.89713068      -0.74102549
C        1.03033550       1.40261923      -1.91260296
C       -1.23008088       0.55214878      -0.99706856
C       -0.21356819      -0.55961273      -0.75056382
H       -1.26139888      -3.10398812      -0.10926224
H       -0.37772013      -3.27982634       1.41970174
H        0.49195216      -3.23104735      -0.12506725
H       -0.24294468      -1.23704773       2.63299350
H        0.45063147       1.10473761       2.73260455
H       -1.08331051       1.27335279       1.92176306
H        1.71761437       1.27176845       0.71293663
H        0.51005690       2.54528926       0.62072929
H        0.92163238       2.48754975      -2.03159166
H        0.71751916       0.93326949      -2.85074674
H        2.09671461       1.19027375      -1.77111060
H       -1.60897729       0.67703058      -2.00646086
H       -1.96738917       0.72473116      -0.22097231
H        0.06649808      -1.14454956      -1.62281977
