17
Properties=species:S:1:pos:R:3 075370=T pbc="F F F"
N       -0.01828816      -1.34358487       0.08936355
C        0.06136966       0.02964399       0.03159626
N        1.18587071       0.63316017       0.02422643
C        1.15413474       2.09404279       0.05385593
C       -0.24565795       2.68041505      -0.14884381
C       -0.84619315       2.35297202      -1.54078874
O       -1.58896146       1.14361542      -1.32116080
C       -1.28272134       0.77201458       0.01419431
O       -1.14502485       1.97234745       0.72296779
H       -0.83288591      -1.76768691      -0.32839051
H        0.84885599      -1.81978320      -0.11761992
H        1.83062881       2.47639619      -0.72178511
H        1.55948329       2.43710934       1.01568831
H       -0.29241361       3.74212423       0.10098823
H       -0.07241425       2.19462986      -2.29959557
H       -1.53931505       3.12580296      -1.88638493
H       -2.10784166       0.18771072       0.42902244
