18
Properties=species:S:1:pos:R:3 077136=T pbc="F F F"
C        0.58274991      -0.90389726      -0.94313784
C       -0.10297438       0.31761571      -0.34792418
C       -0.33482561       0.36404695       1.19180932
O       -1.77629818       0.46584959       0.97209652
C       -1.61868666       0.37071453      -0.40067892
N       -2.46798653       0.32615818      -1.31877818
C        0.28603852       1.53987005       1.93094244
C       -0.54748349       2.79003887       2.08874580
O        1.42078765       1.43367754       2.33510464
H        0.14133080      -1.82964780      -0.56202138
H        1.64939157      -0.90368414      -0.70101656
H        0.47416058      -0.90092728      -2.03107672
H        0.34907110       1.23796400      -0.73060860
H       -0.08265984      -0.56582669       1.70833181
H       -3.42173595       0.36983611      -0.95610646
H       -1.45467747       2.56454062       2.65896156
H       -0.88452836       3.15540591       1.11222859
H        0.03848268       3.55773247       2.59449014
