17
Properties=species:S:1:pos:R:3 077323=T pbc="F F F"
C       -0.00401054      -1.54122897      -0.00707633
C        0.01855750      -0.00532699       0.01451580
C       -0.76362690       0.59090551       1.20989190
N       -2.12779925       0.73094505       0.67846073
C       -2.02127347       1.22161702      -0.69523347
C       -0.74091067       0.55547887      -1.20083977
O       -0.38783563       0.46657233      -2.34485486
C       -0.18322221       1.87731262       1.65501529
N        0.22570407       2.90270010       1.99955721
H       -1.02715951      -1.91629411       0.08856469
H        0.59313658      -1.94860846       0.81372591
H        0.41063218      -1.90227551      -0.95143378
H        1.05060920       0.35095015      -0.01795337
H       -0.76873490      -0.08703670       2.06918898
H       -2.71246991       1.31023104       1.26833144
H       -1.89514232       2.31417866      -0.78618293
H       -2.88206011       0.92851991      -1.30191204
