19
Properties=species:S:1:pos:R:3 077461=T pbc="F F F"
C        0.09938812      -1.93154920       0.37632589
C        0.11488585      -0.43238345       0.35154470
C       -1.04080947       0.40531034       0.89063084
O       -2.27166954      -0.24043050       1.01836003
C       -0.57977307       0.62313524      -0.52275194
O       -1.47577946       0.40069711      -1.56626988
C        0.67596793       1.48589359      -0.57381243
C        1.38014198       0.44662511       0.36704785
O        2.54830840      -0.14580701      -0.15137118
H        0.61760825      -2.36921793      -0.48327946
H       -0.92938847      -2.29931625       0.38294922
H        0.59410937      -2.30053172       1.28197975
H       -0.88173787       1.14596981       1.67607341
H       -2.64150129      -0.30339960       0.12652336
H       -1.94887681       1.22525348      -1.73730221
H        0.59037411       2.52154362      -0.22605241
H        1.15314496       1.47448116      -1.55825701
H        1.66216243       0.82987570       1.35353200
H        2.33344458      -0.53614949      -1.00587053
