18
Properties=species:S:1:pos:R:3 080795=T pbc="F F F"
C        0.83766538      -1.95233040       0.30536492
C        0.67996434      -0.44211548       0.32092247
C       -0.49314725       0.27114418       1.07610892
C       -1.45520160      -0.17725856      -0.05853500
C       -0.16162690       0.30676440      -0.78535140
C        0.08533699       0.33160006      -2.20448677
N        0.28619689       0.34004275      -3.34354728
C       -0.20450046       1.52534840       0.18170022
O        0.99371239       2.23154382       0.30958582
H       -0.09715322      -2.49812680       0.15763552
H        1.27054567      -2.28897382       1.25358070
H        1.52644573      -2.25090654      -0.49184091
H        1.64496792       0.03699431       0.48839442
H       -0.69349425       0.25823917       2.14720526
H       -2.34908714       0.43015786      -0.22167460
H       -1.68364564      -1.23765829      -0.13322818
H       -1.06017561       2.19456328       0.02871047
H        0.87319676       2.92097166       0.96945543
