16
Properties=species:S:1:pos:R:3 080230=T pbc="F F F"
C        0.18462513      -1.61952693       0.01341000
C       -0.00746428      -0.11091097      -0.00762773
C       -1.18877674       0.54859956       0.77599560
N       -2.34177792      -0.12399351       0.14708504
C       -2.09569885      -0.03447209      -1.22755387
O       -2.84046468      -0.31823060      -2.12960160
C       -0.68951007       0.58378628      -1.25047956
C       -0.97150713       1.73139136      -0.21516248
O       -0.92235730       2.91738723      -0.19633763
H       -0.75056135      -2.15148631      -0.17141301
H        0.57383496      -1.93832123       0.98559860
H        0.90861491      -1.92030924      -0.74980193
H        0.92799147       0.40348240       0.23491117
H       -1.23307876       0.62688165       1.85927568
H       -3.28407020      -0.00091558       0.48911618
H       -0.21868662       0.72809992      -2.21742626
