15
Properties=species:S:1:pos:R:3 081680=T pbc="F F F"
O       -0.57749934      -1.98796405       0.87002758
C       -0.56462467      -0.59271594       0.71298106
C       -0.65473125      -0.10889201      -0.76777923
C        0.84940484      -0.43570622      -0.90354310
C        0.89987885      -0.09717423       0.60405268
O        0.90007751       1.33112706       0.76654602
C        0.00008385       2.04443871       0.04012241
O       -0.05985748       3.23244983       0.09726916
O       -0.83166425       1.31839558      -0.75395270
H       -1.47993597      -2.30099858       0.74703571
H       -1.20399085      -0.06813898       1.43385364
H       -1.40038947      -0.51068996      -1.45356130
H        1.44636583       0.17076387      -1.58600566
H        1.00917284      -1.49991007      -1.07194135
H        1.66770955      -0.49498501       1.26489509
