17
Properties=species:S:1:pos:R:3 081410=T pbc="F F F"
O       -1.28064669      -1.08562101       1.32564042
C       -1.01661956       0.24443616       1.06963230
C       -1.22084638       0.90546202      -0.32632392
C       -0.37017052       0.03897829      -1.27570089
C        0.96647301       0.07130472      -0.44736268
C        1.59549278      -1.26815177      -0.18995033
O        1.05613138      -2.19124676       0.38532320
C        0.39283149       0.84845189       0.79205368
O       -0.28250666       1.93558526       0.11350745
H       -0.55486284      -1.63981370       0.98761561
H       -1.51149536       0.86069055       1.82382700
H       -2.17499497       1.28987934      -0.68459576
H       -0.24830274       0.48225546      -2.26470057
H       -0.78061818      -0.96919549      -1.37745315
H        1.70227062       0.71592188      -0.93321875
H        2.63208012      -1.39790109      -0.56317686
H        1.09578450       1.15896425       1.56488326
