19
Properties=species:S:1:pos:R:3 081700=T pbc="F F F"
O        0.21790582      -1.59152823      -0.27226844
C        0.07765687      -0.21222755      -0.10180043
C       -0.25486072       0.72664376      -1.29277926
C        0.14837629       0.21380892      -2.66725082
C        1.55095331      -0.32257340      -2.80791905
C        2.55894314      -0.32881031      -1.92813361
C        2.61292882       0.19853691      -0.51614797
C        1.30922167       0.71696081       0.07237267
O        0.68054902       1.70588740      -0.77894050
H        0.84464242      -1.74283816      -0.99142429
H       -0.63437522      -0.07483924       0.71496273
H       -1.27262272       1.13158443      -1.32661817
H        0.01633398       1.02825646      -3.39406331
H       -0.56813284      -0.56384978      -2.96969122
H        1.75698139      -0.74581574      -3.79004305
H        3.50120489      -0.75660820      -2.26766440
H        3.35665126       1.00753641      -0.47857571
H        3.00393719      -0.58600433       0.14809425
H        1.48317162       1.11452506       1.07867545
