18
Properties=species:S:1:pos:R:3 082283=T pbc="F F F"
C       -0.23063758      -1.57832057       0.02249978
C       -0.08999758      -0.05185538      -0.00331543
C       -0.69527349       0.59279488       1.22705843
N       -2.15688245       0.68152199       1.26342164
C       -1.34741530       1.92933488       1.12920495
C       -1.40167552       2.59057338      -0.19146364
C       -1.08991865       1.93869280      -1.31840976
C       -0.61254237       0.53920231      -1.32570766
O       -0.55698116      -0.09907629      -2.35841439
H       -1.28522211      -1.85477390       0.11331113
H        0.31280184      -2.00507515       0.87125569
H        0.15755456      -2.00764399      -0.90197053
H        0.98205770       0.20257069      -0.00501934
H       -0.18237040       0.36293769       2.15959340
H       -2.48950716       0.59807774       2.22142090
H       -1.30634385       2.58344450       1.99518114
H       -1.73259812       3.62539010      -0.22642777
H       -1.19012612       2.39896539      -2.29599913
