23
Properties=species:S:1:pos:R:3 082173=T pbc="F F F"
C       -0.01927964      -1.60623446      -0.00124987
C       -0.04481112      -0.07268173      -0.00281574
C       -0.71600964       0.56496264       1.22451784
C       -2.18413333       0.34895049       1.50089606
C       -1.73431738       1.57915355       0.75028322
C       -1.72830112       1.59845689      -0.77567740
C       -1.87350954       2.95135513      -1.43347962
C       -2.18840584       0.35584444      -1.50248586
C       -0.71545580       0.56487439      -1.22898842
H       -1.03160139      -2.02225290      -0.00371446
H        0.49548310      -1.99012033       0.88590606
H        0.50071736      -1.99226409      -0.88435099
H        0.99648348       0.27581627      -0.00215629
H       -0.08007842       0.76793504       2.08042953
H       -2.50786095       0.49288587       2.52702737
H       -2.73274120      -0.43186623       0.98810712
H       -1.84217636       2.54128881       1.23981579
H       -2.86886452       3.37677498      -1.25761834
H       -1.73089739       2.88156483      -2.51641660
H       -1.13577234       3.66412825      -1.04563650
H       -2.50935227       0.48338265      -2.53221642
H       -2.73964680      -0.41635978      -0.97948784
H       -0.08220459       0.75506417      -2.09089876
