19
Properties=species:S:1:pos:R:3 082967=T pbc="F F F"
O       -1.09033970      -2.17508392      -1.15738125
C       -0.87656054      -0.81708691      -1.37835146
C        0.57289362      -0.16644590      -1.32659767
C        1.40523463      -0.34235808      -0.00836123
C        0.82168760       0.99073656       0.61223535
C       -0.20354731       0.81650642       1.76128691
C       -1.28676406       0.00641508       1.04606745
C       -1.18736007       0.18314912      -0.27683964
C       -0.03909635       1.10544294      -0.66576287
H       -0.80860026      -2.36649857      -0.25486961
H       -1.31306601      -0.58780240      -2.35661678
H        1.13327968      -0.16634230      -2.26371580
H        2.47661405      -0.26826228      -0.20634765
H        1.23490429      -1.25952209       0.56396902
H        1.58164785       1.75467392       0.79647782
H       -0.53914723       1.78565387       2.15706426
H        0.20480410       0.25587016       2.61113438
H       -1.84098251      -0.78895666       1.53396799
H       -0.24560178       2.03991105      -1.18735921
