19
Properties=species:S:1:pos:R:3 082148=T pbc="F F F"
O       -0.53694850      -1.41712010      -1.32991445
C       -0.27558685      -0.03572737      -1.25714835
C        1.15634425       0.48018289      -1.37779419
C        1.98047643       0.09179536      -0.17864265
C        1.00966690       1.22734518      -0.04318911
C       -0.42360578       0.70452475       0.13163020
C       -0.76160320      -0.12881658       1.36856975
C       -2.06392142      -0.89751661       1.24350317
O       -2.26669889      -1.97377721       1.74215598
H        0.16618571      -1.89020768      -0.87244290
H       -0.93064964       0.42211768      -2.00192795
H        1.62405571       0.81174763      -2.29688032
H        3.02553842       0.37701996      -0.23936621
H        1.82672692      -0.84882930       0.34562531
H        1.33750744       2.23127515       0.19585019
H       -1.15281830       1.51468900       0.03252855
H       -0.87423449       0.54573226       2.23079352
H        0.02230573      -0.84260162       1.63643927
H       -2.86274045      -0.37183339       0.67021019
