20
Properties=species:S:1:pos:R:3 082825=T pbc="F F F"
C        1.49658639      -1.46008441       0.34942909
C        1.14352657       0.01554251       0.35044814
N        0.16719069       0.53362982       1.38520388
C       -1.12794244      -0.23146580       1.38347682
C       -1.63620379       0.49567098       0.12714856
C       -0.97034651      -0.03768277      -1.17063584
C        0.34920990       0.69106994      -0.79471426
O        1.05039039       1.35368657      -1.80721629
C       -0.42138447       1.45907460       0.32048614
H        0.64518564      -2.10356423       0.11043510
H        1.87978284      -1.75918580       1.33101643
H        2.28091306      -1.65942846      -0.38894037
H        2.05997122       0.60259644       0.49069817
H       -1.69306155       0.04184276       2.28060864
H       -1.04218992      -1.32240349       1.35176655
H       -2.68249452       0.79884746       0.07458154
H       -1.39800431       0.45419051      -2.04941792
H       -0.95321037      -1.11986855      -1.33665985
H        1.28367363       0.71147316      -2.48681614
H       -0.43159246       2.53605876       0.47910161
