19
Properties=species:S:1:pos:R:3 083291=T pbc="F F F"
C        1.32762645      -1.82476986      -0.09583999
C        1.08076946      -0.31895373      -0.04957613
C        0.20515936       0.21711808       1.10556552
C       -0.18612981       1.61605051       0.60246891
C       -0.85683701       1.05164331      -0.67047432
C       -1.79910918       0.01383584      -0.01081142
O       -1.04471867      -0.49396035       1.10355106
C        0.28038558       0.21250609      -1.26159885
O        0.49315705      -0.02414096      -2.42179721
H        0.39027635      -2.36890126       0.04589723
H        2.02229284      -2.13533637       0.69039643
H        1.75208820      -2.10378089      -1.06389653
H        2.04252292       0.21377529      -0.04012007
H        0.63970789       0.14000680       2.10242418
H        0.66840698       2.26574497       0.39791918
H       -0.88538779       2.12547702       1.26959496
H       -1.33905050       1.72970310      -1.37191403
H       -2.07227344      -0.80729646      -0.68255714
H       -2.71888668       0.49127886       0.35076823
