19
Properties=species:S:1:pos:R:3 083051=T pbc="F F F"
C        0.08922229      -1.52531736      -0.08013484
C       -0.06807291      -0.02861705       0.04741713
C       -0.72595071       0.66458472       1.20695391
C       -1.66342015      -0.11931509       2.12641558
C       -2.79329371      -0.55205469       1.21631241
C       -2.64977725      -0.08243556      -0.02373359
C       -1.39530718       0.71985053      -0.18368508
C       -1.40123364       1.88972972      -1.00945323
C       -1.41127329       2.86377481      -1.71673970
H       -0.80925144      -2.06307807       0.22923821
H        0.92312144      -1.87364110       0.53998121
H        0.30699284      -1.80412448      -1.11642754
H        0.77510194       0.53011649      -0.35101808
H       -0.24698815       1.55497713       1.59616750
H       -2.02817186       0.50643861       2.95090170
H       -1.16297488      -0.97892569       2.59248305
H       -3.59932569      -1.19476732       1.55218457
H       -3.32839500      -0.24817767      -0.85170435
H       -1.42181835       3.72644113      -2.33510342
