18
Properties=species:S:1:pos:R:3 084640=T pbc="F F F"
C        0.21602897      -2.52422060       0.08308851
N        0.15361957      -1.06749834       0.07679931
C        0.18126729      -0.39832726       1.30709887
C        0.23080301       0.93030569       1.43994623
C        0.16869719       1.81040406       0.25692126
C       -1.07886544       1.77990210      -0.59336358
C        0.17248108       1.08811157      -1.08870732
C        0.26264601      -0.40156355      -1.13755878
O        0.43743761      -0.99508176      -2.18758214
H       -0.62225552      -2.93734312       0.65303734
H        1.15358113      -2.87630026       0.52881500
H        0.16458174      -2.86521123      -0.94908051
H        0.17233850      -1.06157049       2.16423467
H        0.28171225       1.36554620       2.43031173
H        0.69929104       2.75547209       0.31472027
H       -1.36463817       2.68428157      -1.11784013
H       -1.90544891       1.16892083      -0.24894325
H        0.67672266       1.54417250      -1.93189747
