23
Properties=species:S:1:pos:R:3 084012=T pbc="F F F"
C        0.32332630      -1.46988481       0.15105293
C        0.04029240       0.01138380       0.02234332
C       -1.33195042       0.58536532       0.31883781
O       -2.35954018      -0.30938788       0.63374186
C       -3.28641281      -0.51991971      -0.42458479
C       -2.59034334      -1.14640259      -1.62850081
C       -1.48776930      -0.20852757      -2.16111928
C       -0.78949198       0.63504123      -1.09262552
C       -0.30749436       1.98041362      -1.60659579
H       -0.59962455      -2.04892632       0.21105822
H        0.88926042      -1.66787693       1.06727572
H        0.91660641      -1.84631352      -0.68979230
H        0.86692619       0.64124811       0.34334295
H       -1.39953098       1.51475103       0.88419363
H       -3.76908361       0.42992192      -0.70746200
H       -4.05619987      -1.18212211      -0.01799480
H       -3.31953616      -1.34914613      -2.42098627
H       -2.17600979      -2.11279603      -1.32453554
H       -1.95380835       0.49345382      -2.86407491
H       -0.75265124      -0.77451360      -2.74651127
H        0.43851576       1.85276114      -2.40078131
H        0.15731016       2.57252746      -0.81196349
H       -1.13537065       2.56857142      -2.02065582
