17
Properties=species:S:1:pos:R:3 085125=T pbc="F F F"
C        0.40488524      -1.26220384       0.13614501
C       -0.19684477       0.12050790       0.05062337
O       -1.50140706       0.19367741       0.75324317
C       -2.15557591       0.58934167      -0.36988313
O       -3.31289111       0.81419810      -0.52125421
C       -0.88203931       0.59640167      -1.25198810
C       -0.95514936      -0.31793516      -2.47634212
C       -0.51540394       2.01250072      -1.66803991
O        0.34005121       2.68035274      -1.14947190
H       -0.28041368      -2.02867596      -0.23434648
H        0.65046460      -1.49754793       1.17543930
H        1.32959060      -1.30527709      -0.44823403
H        0.46651159       0.88207880       0.46357194
H       -1.33496263      -1.30817555      -2.21664968
H        0.02968354      -0.43472162      -2.93912979
H       -1.63433032       0.11086115      -3.21934842
H       -1.12113689       2.39945293      -2.51573947
