17
Properties=species:S:1:pos:R:3 085576=T pbc="F F F"
C       -0.70201751      -1.42779532       0.12039176
C       -0.00692187      -0.06162425      -0.04536696
N       -0.22466584       0.85610778       1.06942189
C       -1.41901709       1.53449824       1.24407681
O       -1.82186123       1.91846765       2.32433446
N       -2.10600902       1.73658766       0.05775714
C       -1.39511415       1.78411238      -1.20927291
C       -0.46077069       0.58830984      -1.35444224
O       -0.09991869       0.17796164      -2.42803887
H       -1.78475410      -1.30358893       0.21362070
H       -0.33423561      -1.92995549       1.01996225
H       -0.49131107      -2.06058790      -0.74569991
H        1.07126693      -0.22575682      -0.14391651
H        0.19194718       0.59775415       1.95233580
H       -2.88174686       2.37181194       0.17222329
H       -0.77536097       2.69070039      -1.31875429
H       -2.10280941       1.77071156      -2.04126192
