18
Properties=species:S:1:pos:R:3 085632=T pbc="F F F"
C       -0.01685676      -1.57212693       0.03164224
C       -0.09820565      -0.04871779      -0.01431388
C       -0.85634467       0.60064241       1.17144786
C       -1.49467002       1.82412359       0.53730492
C       -1.41271309       1.80381235      -0.80103678
C       -0.77794504       0.52643088      -1.29546542
O       -1.75220861      -0.32131254      -1.90062645
C       -2.12041298       2.84194883       1.31005111
N       -2.62122707       3.65282757       1.96851557
H       -1.01200044      -2.02392358      -0.01139233
H        0.47012905      -1.90690594       0.95295413
H        0.55567053      -1.96231075      -0.81499302
H        0.91855999       0.36190783      -0.00486337
H       -0.19192498       0.86461030       1.99959863
H       -1.62756452      -0.05859672       1.59157929
H       -1.82585707       2.55325901      -1.46520285
H       -0.04287737       0.69496555      -2.08813117
H       -2.51854191      -0.35984301      -1.31713131
