17
Properties=species:S:1:pos:R:3 085594=T pbc="F F F"
C        0.07576217      -1.44950751      -0.01060862
N       -0.02790843       0.00054983      -0.06640458
C        1.22578970       0.73597822      -0.04046277
C        1.15462777       2.20938420      -0.42329024
O        2.16548788       2.82799569      -0.69172754
N       -0.08828583       2.75384264      -0.44231047
C       -1.29640424       2.10854706       0.03078115
C       -1.25606447       0.58346983       0.02706097
O       -2.30026382      -0.03740657       0.11990844
H       -0.93148689      -1.86242013      -0.02935999
H        0.58263429      -1.76956848       0.90857697
H        0.64793517      -1.82141217      -0.86796860
H        1.92879354       0.27346423      -0.74076554
H        1.69703598       0.67592145       0.95281930
H       -0.11692689       3.74049057      -0.65827358
H       -2.14188984       2.39036904      -0.60190406
H       -1.55003858       2.41819051       1.05547387
