18
Properties=species:S:1:pos:R:3 087929=T pbc="F F F"
C       -0.06232542      -1.50755838       0.13253673
C        0.00280024      -0.01752870      -0.09013765
O       -1.22996587       0.71683210      -0.00782679
C       -0.55374248       0.65536488      -1.26665574
C       -1.27480937      -0.04720356      -2.41069774
O       -1.58447674       0.97945237      -3.36231529
C       -0.90727349       2.14015354      -3.09270552
N       -0.99684780       3.19416321      -3.77836836
C       -0.04298631       1.95251297      -1.86448270
H       -0.90389232      -1.95738035      -0.39973126
H       -0.17890181      -1.72641206       1.19865604
H        0.86280358      -1.98508418      -0.20782168
H        0.83555664       0.48187820       0.41012006
H       -2.20636679      -0.50981340      -2.07778937
H       -0.64651523      -0.80456536      -2.89643518
H       -1.63912776       3.05976439      -4.56126074
H        1.00662451       1.87151330      -2.16812031
H       -0.13346204       2.79275139      -1.17552461
