22
Properties=species:S:1:pos:R:3 087144=T pbc="F F F"
C        0.20864642      -1.60717582      -0.40612131
C        0.22740734      -0.09650909      -0.37302536
N       -0.82080747       0.59315771       0.40306080
C       -0.75882680       0.79351269      -1.05996806
C       -1.91760158       0.19523094      -1.83364971
C       -0.26176736       2.15082188      -1.52867188
O        0.80437565       2.66924104      -0.76448435
C       -1.21464004       3.22548296      -1.97382784
C       -0.29383845       2.56384387      -2.97993843
H       -0.80856998      -2.00131167      -0.43498874
H        0.69159655      -2.00880747       0.49150016
H        0.75368189      -1.98768051      -1.27741345
H        1.22955919       0.31569352      -0.26940981
H       -0.40816733       1.40509775       0.85869199
H       -2.27671257      -0.70505559      -1.33500367
H       -1.62902168      -0.07076418      -2.85571649
H       -2.76311729       0.88798639      -1.88595240
H        1.62132040       2.27448322      -1.08755353
H       -0.96635136       4.23129187      -1.65689321
H       -2.27481083       3.01101897      -2.02414104
H       -0.72723937       1.89298564      -3.71213891
H        0.55050353       3.14291350      -3.33792764
