20
Properties=species:S:1:pos:R:3 087641=T pbc="F F F"
C        0.20510079      -2.13549369       1.16435999
C        0.16417080      -0.62356382       1.16380144
C       -1.15091945       0.11223316       1.40831626
C       -0.50370005       0.13487505       0.05922067
N       -1.04900655      -0.42914792      -1.16372163
C       -0.61238852       0.58824498      -1.98065596
O       -0.70085676       0.78278597      -3.16356208
C        0.02094285       1.32907410      -0.76900411
C        1.52224082       1.56750621      -0.83960913
H       -0.71022429      -2.56017208       0.73803245
H        0.30423523      -2.52770904       2.18195096
H        1.04809590      -2.51181114       0.57496674
H        1.04906597      -0.14862299       1.58205768
H       -1.14455037       1.01816353       2.00619448
H       -2.04248693      -0.49619859       1.53154868
H       -1.59977204      -1.25297470      -1.35370443
H       -0.51851454       2.25629278      -0.55175303
H        2.06197549       0.63703712      -1.04072995
H        1.90428988       1.98761727       0.09664247
H        1.75230175       2.27186379      -1.64435150
