18
Properties=species:S:1:pos:R:3 087533=T pbc="F F F"
C        0.02932522      -1.56252583      -0.02275005
C        0.00675026      -0.05153114      -0.05761025
C       -1.25774392       0.71337591       0.22341480
C       -0.69462058       0.66845598      -1.17705256
C       -1.33125100       0.14433979      -2.45647852
N       -0.22175065      -0.02082916      -3.40935989
C       -0.84516682       1.33918554      -3.23009638
C       -0.24625472       1.90095670      -1.94637539
O        0.23600201       2.94983566      -1.62741882
H       -0.92441718      -1.98107081      -0.36104993
H        0.21071610      -1.92853154       0.99344023
H        0.81558884      -1.95777610      -0.67324870
H        0.92418529       0.43167486       0.27005672
H       -1.19462320       1.66356304       0.74362545
H       -2.16520932       0.14712170       0.41131846
H       -2.27648368      -0.37056006      -2.56650885
H       -0.60998008      -0.38163778      -4.28283600
H       -1.28180797       1.86296427      -4.07040081
