19
Properties=species:S:1:pos:R:3 088192=T pbc="F F F"
O       -1.86749842      -2.30514304      -0.06146972
C       -1.94505627      -0.91804319      -0.11272252
C       -1.56608827      -0.16988445      -1.36836594
C       -0.65675695      -0.12900058      -0.13631501
O        0.45588759      -0.98617594      -0.17092186
C        1.68928745      -0.29628918      -0.35462242
C        1.95995997       0.64942424       0.81735268
C        0.73075906       1.47199708       1.10360614
C       -0.46557580       1.11236839       0.63643896
H       -0.92638440      -2.52506437      -0.04298415
H       -2.76529752      -0.52982916       0.48519832
H       -2.11680425       0.72422075      -1.64135539
H       -1.20417515      -0.77080207      -2.19563137
H        1.66025515       0.26961916      -1.29733907
H        2.45738325      -1.06897006      -0.43955139
H        2.81106380       1.29773983       0.57314418
H        2.25537391       0.07465716       1.70579549
H        0.84179359       2.37666342       1.69384161
H       -1.34812672       1.72251202       0.80590148
