20
Properties=species:S:1:pos:R:3 089162=T pbc="F F F"
C        0.00622761      -1.52832234      -0.07552510
N       -0.01134661      -0.08291934      -0.14432430
C        1.25616654       0.62593216      -0.45478812
C        0.43061681       1.61036550      -1.30004191
O        0.93319738       2.11653602      -2.49608533
C       -0.52069599       2.55798340      -0.45931008
O       -0.22596891       2.68990700       0.90714527
C       -1.72721717       1.62437179      -0.81105535
C       -0.72039114       0.56642826      -1.29049571
H       -1.01101922      -1.90501722       0.07511520
H        0.61349092      -1.85002168       0.77726931
H        0.41786307      -2.00271581      -0.98495787
H        1.93199646       0.04601334      -1.10244377
H        1.80329071       0.99786618       0.41819305
H        1.42571568       2.92174143      -2.30003375
H       -0.57867671       3.56883556      -0.87339240
H       -0.27287570       1.79539542       1.27316316
H       -2.33251189       2.02468183      -1.62986960
H       -2.37552187       1.35137685       0.02534072
H       -0.94204639      -0.08908425      -2.13815362
