17
Properties=species:S:1:pos:R:3 089779=T pbc="F F F"
O       -1.62338945      -0.96701248       1.88501606
C       -1.06804603      -0.04149061       1.01090046
C       -1.07047788      -0.30437645      -0.52438259
C        0.33526815       0.29760421      -0.57414510
C        0.78203377       1.44834919      -1.38883041
N        1.39198284       0.11254487      -1.54499652
C        0.50832418       0.13295978       0.95289683
C        1.17628862      -1.10062747       1.33061432
N        1.62326246      -2.12284425       1.63736639
H       -1.13534060      -1.79762121       1.81444691
H       -1.52329165       0.92299190       1.24608829
H       -1.85806447       0.16461128      -1.11787446
H       -1.05647102      -1.38113507      -0.72897004
H        1.44141485       2.20164297      -0.96576868
H        0.10610502       1.81343684      -2.15845144
H        1.04018921      -0.35614267      -2.37622458
H        0.93021199       0.97710918       1.50231455
