21
Properties=species:S:1:pos:R:3 091167=T pbc="F F F"
C        0.98215022      -2.21244158       0.33968451
C        0.83081472      -0.69951055       0.27804148
O        0.06646121      -0.21920173       1.39995146
C       -1.01225979       0.59224620       0.84291634
C       -1.95861081      -0.34799335       0.11736832
C       -1.29914027      -0.76630415      -0.97003236
C        0.06483527      -0.10375138      -0.95088166
C       -0.31412221       1.28887867      -0.34472690
C        0.80909978       2.25778496       0.01018024
H        0.01183750      -2.71173158       0.28851206
H        1.46220069      -2.49855094       1.28021318
H        1.61027651      -2.57006705      -0.48397836
H        1.82988255      -0.24355318       0.31982640
H       -1.41480253       1.20574267       1.64816718
H       -2.92110388      -0.67962328       0.48490439
H       -1.61483058      -1.51400874      -1.68678436
H        0.63731668      -0.11081024      -1.87910914
H       -1.04471415       1.77901094      -0.99306112
H        1.43796332       1.87846445       0.81840723
H        0.39156284       3.21534435       0.33910256
H        1.44518292       2.46007551      -0.85870146
