18
Properties=species:S:1:pos:R:3 093266=T pbc="F F F"
C        0.14401458      -1.72578418      -0.25708611
C        0.66478981      -0.28950281      -0.12055337
O        2.07036770      -0.27584811       0.02582697
C       -0.02440300       0.49944875       1.01397828
O       -0.41935633      -0.23810244       2.14807772
C       -1.27853856       1.09088218       0.33795061
N       -0.85644278       1.22488615      -1.04939953
C        0.27087563       0.53359062      -1.35904718
O        0.89677115       0.54595194      -2.40047427
H       -0.94713440      -1.76351327      -0.33102006
H        0.44658186      -2.30964353       0.61508356
H        0.57082296      -2.18172197      -1.15457692
H        2.42324806      -0.20179882      -0.87354400
H        0.65863293       1.31625078       1.28703846
H        0.37722937      -0.50504255       2.61831182
H       -1.56331679       2.05613873       0.76508354
H       -2.12332201       0.40042129       0.45527300
H       -1.31082017       1.82338724      -1.72092251
