20
Properties=species:S:1:pos:R:3 093762=T pbc="F F F"
C        1.15574064      -2.55546040      -0.03733436
C        0.90691647      -1.04887805      -0.06150523
C        0.13837986      -0.56690060       1.17122469
N       -0.12067555       0.86528282       1.08179924
C       -0.61601092       1.36227780      -0.09445021
C       -1.24064241       2.72624667      -0.01040480
C       -0.52228078       0.66353470      -1.25950852
C        0.18526450      -0.60221352      -1.35071159
O        0.27605707      -1.25256708      -2.37981619
H        0.21446069      -3.10544074       0.07273532
H        1.81430068      -2.83663227       0.79062977
H        1.60916526      -2.86952588      -0.97853095
H        1.87416908      -0.52244102      -0.07590641
H        0.70782367      -0.76461026       2.08443549
H       -0.81141343      -1.12526877       1.24103938
H       -0.44773387       1.31240648       1.92450058
H       -2.11810715       2.71658370       0.64797113
H       -1.55275728       3.07457124      -0.99528548
H       -0.52960162       3.44984199       0.40471958
H       -0.92305491       1.07919320      -2.17560145
