21
Properties=species:S:1:pos:R:3 094041=T pbc="F F F"
C       -0.04025039      -1.55351499      -0.23987354
C       -0.11032807      -0.04801141      -0.05948365
C       -0.85246702       0.43993567       1.20665753
C       -1.56906431       1.73064603       0.73944946
C       -1.19191657       1.83456980      -0.75768718
C       -2.32387541       2.33589655      -1.66040420
C       -1.92702590       2.52784949      -3.04962973
C       -1.59251961       2.70159419      -4.19053072
O       -0.83695226       0.51815067      -1.14547589
H       -1.04756779      -1.98146540      -0.25522884
H        0.52058594      -2.01082317       0.58118894
H        0.45661414      -1.80771402      -1.18012524
H        0.91193586       0.36962962      -0.05913552
H       -0.16444503       0.61221744       2.03812925
H       -1.57695804      -0.31324917       1.53034994
H       -1.25511961       2.61848701       1.29403172
H       -2.65366493       1.63992121       0.85368056
H       -0.32058326       2.50003306      -0.87527068
H       -2.69847627       3.28287145      -1.25123098
H       -3.14923946       1.61539619      -1.60009118
H       -1.29924890       2.84466959      -5.20065484
