20
Properties=species:S:1:pos:R:3 094630=T pbc="F F F"
C        0.67898086      -1.15433218       0.14904843
C       -0.11820172       0.14580973       0.07246498
C       -1.61445276      -0.00041387       0.48979811
C       -2.00336413      -0.10133390      -1.01190434
C       -0.62027705       0.51454190      -1.34815363
O        0.15467758      -0.03057899      -2.40218514
C       -0.16011793       0.44612473      -3.68086939
C       -1.43962946      -0.06842598      -4.21455492
N       -2.43736711      -0.46895486      -4.63759849
H        0.14656237      -1.98616516      -0.32239801
H        0.86022370      -1.42088263       1.19545433
H        1.64555431      -1.05589973      -0.35271732
H        0.43588585       0.94443658       0.57450481
H       -2.00785222       0.90278717       0.96298989
H       -1.85801912      -0.85797967       1.12102837
H       -2.89459301       0.42768148      -1.35356045
H       -2.05857480      -1.13741272      -1.35328827
H       -0.68981866       1.60518224      -1.47574287
H        0.64294092       0.12370998      -4.35123513
H       -0.19939928       1.54666400      -3.70853990
