23
Properties=species:S:1:pos:R:3 095342=T pbc="F F F"
C        0.94372157      -2.67397884       0.04512059
C        0.91847188      -1.15623099       0.14973689
C        0.23292892      -0.64537738       1.42181992
C        0.24144208       0.89012989       1.46051409
C       -0.17215909       1.49638449       0.12178497
C       -1.63817593       1.43284490      -0.40148227
C       -1.06364172       1.17417668      -1.82280984
C        0.25957132       0.72953128      -1.16307581
O        0.21610389      -0.67757545      -0.99554731
H       -0.07591744      -3.07203941       0.05513787
H        1.49570928      -3.11044499       0.88299300
H        1.42126483      -2.98438254      -0.88816791
H        1.95569763      -0.77370331       0.12550495
H        0.73573161      -1.04841600       2.30837300
H       -0.79420190      -1.03121759       1.43054749
H        1.25956975       1.22666915       1.69928877
H       -0.40237758       1.26289421       2.26647715
H        0.18117860       2.53074748       0.05252392
H       -2.25735813       2.32068335      -0.25410155
H       -2.17653583       0.56158082      -0.02104405
H       -0.94069784       2.10032182      -2.39090540
H       -1.55012728       0.42445358      -2.44941255
H        1.20980137       1.02294885      -1.63327590
