20
Properties=species:S:1:pos:R:3 095709=T pbc="F F F"
C        0.02963443      -1.61048203      -0.15595696
C       -0.05419757      -0.08216797      -0.05489263
C       -0.44633795       0.34237106       1.37346301
O       -1.09497004       1.59850551       1.42688379
C       -0.36375458       2.65802978       0.84714338
C       -0.65624441       2.88951563      -0.62857662
N       -0.71428876       4.08407852      -1.04799271
O       -0.76127872       1.83869675      -1.48569232
C       -1.04681192       0.49470377      -1.06939614
H       -0.95891469      -2.06813884      -0.03416806
H        0.68032068      -2.01938620       0.62387365
H        0.43077097      -1.92382993      -1.12427716
H        0.92992257       0.33327242      -0.30470241
H        0.43953467       0.33504827       2.02860310
H       -1.17110694      -0.36810719       1.78601953
H        0.71961056       2.50923055       0.97886187
H       -0.63659414       3.57962257       1.36318353
H       -0.86480460       4.09264358      -2.05933142
H       -2.07223988       0.43818653      -0.68554690
H       -0.99913906      -0.07276226      -2.00253286
