20
Properties=species:S:1:pos:R:3 096855=T pbc="F F F"
C       -1.47279236      -2.78263292      -0.62666058
N       -1.42031493      -1.33215472      -0.73841202
C       -0.39650281      -0.72362089      -0.35564210
O        0.79187910      -1.18961468       0.19762402
C        1.33772960       0.17574050       0.28876621
C        1.69357898       0.54833633       1.71032157
C        0.03038446       0.69970669      -0.31198929
C       -0.80874637       1.89457745       0.04507130
C       -0.23161937       1.76331335      -1.33888847
H       -2.33868540      -3.06585761      -0.01751497
H       -0.57388947      -3.23110721      -0.18727788
H       -1.62893029      -3.21539528      -1.62143255
H        2.20281640       0.25903443      -0.37826626
H        0.82267624       0.45825844       2.36545049
H        2.05657284       1.58109949       1.75215315
H        2.48604925      -0.10389555       2.08935540
H       -0.37588322       2.63236892       0.71268286
H       -1.87048614       1.72041906       0.17962964
H       -0.89831002       1.49975414      -2.15250217
H        0.59447350       2.41167006      -1.61246835
