15
Properties=species:S:1:pos:R:3 098014=T pbc="F F F"
C       -0.35271492      -1.34384402      -0.02254601
O       -0.50251495       0.08164066       0.08446420
C       -0.05674700       0.61275781       1.23222325
O        0.43524878      -0.00619484       2.14202605
C       -0.24507970       2.04732876       1.24537443
C       -0.36261478       3.24623465       1.32888460
C       -0.49874315       4.69363433       1.41903843
C       -1.75454064       5.18486135       2.10294546
O        0.35416436       5.42475814       0.96807533
H       -0.90757697      -1.84758851       0.77249803
H        0.70103052      -1.62340667       0.04787941
H       -0.75623828      -1.60605542      -0.99970376
H       -2.64018522       4.80646906       1.58113423
H       -1.76042461       6.27561547       2.11032403
H       -1.79767481       4.80097749       3.12798589
