19
Properties=species:S:1:pos:R:3 098991=T pbc="F F F"
C        0.89558718      -3.01800892      -0.94171018
N        0.81744490      -1.59077927      -0.70820847
C        0.06164211      -0.77146788      -1.47608203
O       -0.58390523      -1.12138183      -2.44916997
C        0.11330703       0.71611842      -1.07185125
C        0.08897817       0.98817169       0.42642291
O        0.88676246       0.46344845       1.19659089
N       -0.86689571       1.85802611       0.84067584
C       -1.03351276       2.24313673       2.22977980
H        0.36533531      -3.23337117      -1.87010768
H        0.43025057      -3.58513862      -0.12680740
H        1.93724500      -3.34285128      -1.03797807
H        1.22817133      -1.17947572       0.12254686
H       -0.70000992       1.20976972      -1.60583756
H        1.05770558       1.12412119      -1.45176209
H       -1.49953300       2.23553448       0.15533925
H       -2.01123663       1.93166722       2.61311808
H       -0.93650693       3.32697181       2.35250049
H       -0.25082944       1.74550889       2.80254058
