21
Properties=species:S:1:pos:R:3 098829=T pbc="F F F"
C        1.24207726      -1.18595701       0.93176429
C        0.75407372       0.25345309       1.05406468
C       -0.28590188       0.48399699       2.18893123
C       -1.41948435       0.52133250       1.13250084
C       -0.36065779       0.70418608       0.01540892
C       -0.49958615      -0.12103931      -1.23267467
O       -1.10884830      -1.17345064      -1.26958967
C        0.18730004       0.36989645      -2.49973692
O        0.06112582      -0.54797861      -3.54205158
H        0.40864669      -1.89123064       0.86316174
H        1.84041095      -1.45031598       1.81021930
H        1.87062898      -1.32920711       0.04604914
H        1.61156870       0.93167424       1.07352269
H       -0.14731789       1.44507935       2.69108148
H       -0.34516828      -0.29797821       2.95040896
H       -2.16821497       1.31060400       1.22516753
H       -1.92806832      -0.43828809       1.02097145
H       -0.20826114       1.75425563      -0.25202487
H        1.24668792       0.57070522      -2.26641928
H       -0.25582348       1.34716247      -2.76158686
H       -0.49518754      -1.25690044      -3.17916840
