17
Properties=species:S:1:pos:R:3 099587=T pbc="F F F"
C       -0.00661332      -2.13210575      -0.89749442
N        0.29943182      -0.73081451      -0.62420268
C       -0.46458111      -0.12223544       0.44930335
C       -1.93480505      -0.18201794       0.26417151
N       -3.07339486      -0.27419581       0.08801935
C        0.00676822       1.33863468       0.60150709
O       -0.23347025       2.05513885      -0.57483992
C        1.49656064       1.34850930       0.92239517
O        2.25935655       2.04762164       0.30520572
H       -1.06432750      -2.31866015      -1.13792996
H        0.25673568      -2.74081156      -0.02558261
H        0.60643640      -2.46862974      -1.73697528
H        0.17702497      -0.16116987      -1.45550521
H       -0.23977822      -0.65157226       1.38576139
H       -0.52164553       1.78960128       1.46002759
H        0.60783825       2.49232637      -0.78868798
H        1.82846333       0.71038090       1.76482687
