20
Properties=species:S:1:pos:R:3 099848=T pbc="F F F"
C       -0.11162814      -1.57728198      -0.01765731
C       -0.03725132      -0.04283327      -0.03602097
C       -0.76610097       0.52255794      -1.26426617
C        1.42898729       0.45628263       0.01019003
O        2.09906736       0.02119158      -1.15506870
C        2.22074294      -0.02810547       1.24932460
O        3.57721057       0.37211396       1.14126964
C        1.45615263       1.94792093       0.06907096
N        1.54162012       3.09728735       0.16425962
H       -1.14908065      -1.89660051      -0.15191804
H        0.23987163      -2.00554752       0.92530211
H        0.48342394      -1.99987908      -0.83144022
H       -0.52413275       0.34769094       0.86718329
H       -0.29736708       0.16798636      -2.18612825
H       -0.75230251       1.61612201      -1.27433921
H       -1.81060164       0.19806736      -1.26277005
H        3.04463215       0.10065650      -0.96047496
H        2.23010457      -1.11926891       1.25324536
H        1.75213012       0.33036417       2.17479597
H        3.62299253       1.32428646       1.29336576
