17
Properties=species:S:1:pos:R:3 099553=T pbc="F F F"
C       -0.73975707      -2.12176272       0.58354653
N       -0.73688426      -0.67570317       0.36783458
C        0.58618526      -0.07708196       0.30841987
C        1.28984536      -0.09681416       1.61251402
N        1.80175944      -0.13954568       2.64829764
C        0.47253142       1.38717618      -0.22214170
O       -0.53185122       2.09520695       0.48679163
C        0.24136209       1.39261168      -1.66645823
C        0.03630736       1.40420850      -2.85013760
H       -1.77448496      -2.46533309       0.65957611
H       -0.19958790      -2.43980803       1.48884782
H       -0.28462174      -2.61856832      -0.27958600
H       -1.25852205      -0.21430456       1.10590188
H        1.19473190      -0.64595025      -0.40317263
H        1.41410669       1.90254859      -0.00250222
H       -1.37253234       1.89314962       0.06025724
H       -0.13858799       1.41997043      -3.89798894
