22
Properties=species:S:1:pos:R:3 099757=T pbc="F F F"
C        0.75125365      -2.43764543      -0.59773779
O        0.40952677      -1.08833138      -0.84433119
C       -0.08272109      -0.39155709       0.26700589
C       -0.61357411       0.97518774      -0.22777115
C       -1.83227115       0.77581422      -1.13864950
C        0.48319067       1.78993545      -0.92854867
C        1.00020572      -0.20266814       1.35339748
N        0.50349702       0.05807711       2.59955953
O        2.19062273      -0.27460511       1.12482433
H       -0.10850719      -3.00169650      -0.20196188
H        1.59069844      -2.52101179       0.10166889
H        1.04172367      -2.87028042      -1.55786470
H       -0.92311097      -0.95018767       0.72096147
H       -0.93749150       1.52506551       0.66637898
H       -2.22151227       1.74018216      -1.48003850
H       -2.64143606       0.25167329      -0.61792063
H       -1.55893649       0.18606440      -2.01765298
H        1.35290604       1.93970204      -0.28358255
H        0.09705686       2.77158204      -1.22046304
H        0.82518471       1.27237084      -1.82819387
H       -0.47983998       0.16525893       2.77711428
H        1.15353453       0.28706983       3.33380559
