21
Properties=species:S:1:pos:R:3 100075=T pbc="F F F"
C        0.29837245      -1.46654415      -0.01291064
C       -0.08919498      -0.00377485      -0.00148405
O       -1.22347234       0.40522426       0.01163882
O        1.01753267       0.76414373      -0.00790352
C        0.92672401       2.22515557       0.00105820
C        0.25691611       2.72247028       1.28321072
C        0.23219076       2.73650326      -1.26228098
C        2.41636082       2.60799638      -0.01129346
O        2.51175923       4.02171178      -0.00433919
H       -0.60243342      -2.07905541      -0.00867539
H        0.91302379      -1.69919101       0.86131457
H        0.89830434      -1.68947303      -0.89978241
H       -0.80674161       2.48689254       1.28771216
H        0.39195520       3.80417819       1.35557371
H        0.72609865       2.26130365       2.15836274
H        0.68424518       2.28507398      -2.15141250
H        0.36590149       3.81895867      -1.32531303
H       -0.83137917       2.50086451      -1.24872599
H        2.88268093       2.17295577      -0.90761153
H        2.89997002       2.16305905       0.87089130
H        3.44214945       4.26174462      -0.01181438
