23
Properties=species:S:1:pos:R:3 100999=T pbc="F F F"
C        0.01491923      -1.55114796      -0.18134625
C        0.04218749      -0.02415059      -0.05964288
C        1.45369210       0.57495991       0.10223109
C        2.10810025       0.17069855       1.43203134
C        1.41791667       2.10138591      -0.04418498
O        0.60650466       2.60838843       0.99080480
C        1.13753365       2.62524378      -1.48056227
O        2.50502464       3.04841446      -1.63566465
C        2.79991961       2.78166021      -0.25202694
H       -1.00544342      -1.90836590      -0.35242615
H        0.38424672      -2.04267365       0.72377702
H        0.63089108      -1.89477180      -1.02044949
H       -0.57415502       0.29626116       0.78719991
H       -0.42732090       0.40548116      -0.95367033
H        2.07987504       0.20514987      -0.72233419
H        3.11360991       0.59295345       1.52905102
H        2.20388955      -0.91499836       1.51323337
H        1.51199415       0.52908407       2.27566621
H        0.57827958       3.56799960       0.91880771
H        0.43273680       3.46986102      -1.50728671
H        0.84425549       1.89272303      -2.24102933
H        3.69543824       2.16134349      -0.13289473
H        2.92383288       3.70450428       0.33453184
