25
Properties=species:S:1:pos:R:3 100942=T pbc="F F F"
C        0.57985133      -2.74859020      -1.85420285
C        0.66825171      -1.29781473      -1.37147311
C       -0.37336735      -0.96164463      -0.29426763
O       -1.68461347      -1.31266163      -0.74767843
C       -0.34182994       0.50802869       0.19693158
C        1.06121897       0.94696282       0.66166655
C        1.17275048       2.39756766       1.14738181
C       -1.41136504       0.70054935       1.28227691
O       -1.80442768       2.07077498       1.31007619
H       -0.41677184      -2.97264107      -2.24125689
H        0.77853131      -3.44642343      -1.03300188
H        1.31241752      -2.94480217      -2.64294266
H        0.53159695      -0.60993618      -2.21957842
H        1.67289900      -1.10690838      -0.98211080
H       -0.20630083      -1.62332075       0.56799626
H       -1.89099528      -0.74227865      -1.49741059
H       -0.64405492       1.14250110      -0.65139776
H        1.77066596       0.80976336      -0.16066515
H        1.39097123       0.26835865       1.46194131
H        0.52981906       2.59338238       2.00709995
H        0.87612001       3.09907368       0.36075154
H        2.20704298       2.62304522       1.42761727
H       -1.00221088       0.38709191       2.25774824
H       -2.26921848       0.05753190       1.05415384
H       -2.50698079       2.16239013       1.96034471
