25
Properties=species:S:1:pos:R:3 101225=T pbc="F F F"
C       -0.99810950      -2.33403561      -0.18499512
C       -1.02917566      -0.81362765      -0.38690761
C       -1.71276481      -0.44589310      -1.70452183
O       -3.05445702      -0.91429697      -1.66354932
C        0.36952662      -0.20448138      -0.31742140
C        1.15991434      -0.28359452       1.01943812
C        1.70307610       1.14701576       0.74581773
C        1.85061079       2.11870329       1.90604438
C        0.53811425       1.34183315      -0.26483752
H       -2.00484327      -2.75134798      -0.25654135
H       -0.58242229      -2.59527466       0.79302168
H       -0.37712926      -2.81544790      -0.95084904
H       -1.63509775      -0.36995478       0.41661939
H       -1.15909195      -0.90164914      -2.54334261
H       -1.68324426       0.64578510      -1.84643007
H       -3.46964762      -0.71227540      -2.50663164
H        0.98504684      -0.61434879      -1.12938779
H        1.88281022      -1.09339327       1.14728074
H        0.47866156      -0.28688575       1.87881649
H        2.65070365       1.07765734       0.19881592
H        0.91276679       2.20587157       2.46681182
H        2.12334210       3.12103258       1.55624150
H        2.62703788       1.78903465       2.60591508
H       -0.32591071       1.81572347       0.21677698
H        0.75028298       1.87384999      -1.19618454
