23
Properties=species:S:1:pos:R:3 103470=T pbc="F F F"
C       -0.20829516      -1.44976074      -0.24984004
C        0.16617997       0.00156760       0.07858920
C       -0.62862127       0.56598651       1.24309122
O       -0.38628792      -0.12908208       2.45003180
C       -2.04418402       1.09424337       1.14981847
C       -2.28414498       1.86415477      -0.15082164
C       -1.08435499       2.80130420       0.20239566
C       -0.86444103       2.03075255       1.51533785
C       -0.48939830       2.69398230       2.80998620
H       -1.27012629      -1.53645003      -0.50618988
H       -0.00904499      -2.11277607       0.59896979
H        0.37230641      -1.82541840      -1.09748726
H        0.02681350       0.62033066      -0.81212496
H        1.23104190       0.05717784       0.33576931
H       -0.87188624      -0.95932326       2.41276284
H       -2.81262245       0.68942844       1.80061249
H       -3.23518786       2.40152706      -0.15309488
H       -2.21519417       1.29126042      -1.08161609
H       -1.41048883       3.82777687       0.38856796
H       -0.24430614       2.83452172      -0.49878661
H        0.51455419       3.13268018       2.74486109
H       -0.48838708       1.97531077       3.63112022
H       -1.18558694       3.50503902       3.05331003
