21
Properties=species:S:1:pos:R:3 103018=T pbc="F F F"
C        1.51014291       0.53215084      -0.05379739
C        0.06258238       0.03047707      -0.00506297
C       -0.72260986       0.55803962       1.21194866
C       -0.17209580      -0.05110134       2.41947235
C        0.32386509      -0.59173745       3.37390000
C       -2.29999305       0.65998034       1.13731187
C       -2.13554070       1.87601001       0.17891476
C       -1.09600899       2.09378225       1.31512202
C       -2.22961186       1.68926312       2.30256664
H        2.04895628       0.26506849       0.85976849
H        1.54881023       1.62159597      -0.16015502
H        2.04457801       0.09549239      -0.90297022
H        0.05701014      -1.06448064       0.04580261
H       -0.44543939       0.29462128      -0.93534587
H        0.75063661      -1.05812242       4.22715576
H       -2.98824575      -0.18100133       1.03619513
H       -2.97186586       2.57894275       0.17038901
H       -1.77296381       1.70193827      -0.83318263
H       -0.39008677       2.91873966       1.42310880
H       -1.92943415       1.31534686       3.28094244
H       -3.06804520       2.38602584       2.37233001
