25
Properties=species:S:1:pos:R:3 103488=T pbc="F F F"
C        0.44200083      -1.36981465      -0.03629128
C       -0.15056732       0.04208774       0.08487271
C       -0.79356931       0.56074183      -1.19613314
C       -2.06897295      -0.18534360      -1.56805010
C        0.00502941       1.05832244      -2.38865289
C        1.47843904       1.43244322      -2.27206657
C        1.58362409       2.49894915      -1.14827866
C        0.14254669       3.02294964      -0.89614831
C       -0.81042182       2.03450072      -1.55988618
H       -0.32113328      -2.11302814      -0.28659080
H        0.90369836      -1.67983072       0.90671993
H        1.21011931      -1.41039019      -0.81535002
H        0.63042453       0.72101267       0.43251872
H       -0.91359289       0.04356660       0.87572142
H       -1.87745583      -1.24651520      -1.76122404
H       -2.52458038       0.23295152      -2.47064774
H       -2.80972506      -0.12253599      -0.76166966
H       -0.34091942       0.74139942      -3.36816013
H        1.80147659       1.85429918      -3.23058178
H        2.13103138       0.57409283      -2.07727132
H        2.25935176       3.31151630      -1.43077733
H        2.00418965       2.06172251      -0.23936543
H        0.00402920       4.00321518      -1.36562858
H       -0.05705238       3.16045683       0.17278018
H       -1.74853394       2.43316908      -1.93465482
