16
Properties=species:S:1:pos:R:3 104570=T pbc="F F F"
O       -0.62779416      -0.40538559       1.16586665
C       -0.16949191      -0.37564480      -0.16695891
C        1.18545388       0.32445627      -0.25570086
C        1.19265829       1.84721346       0.05109041
C        1.56515871       1.97831010      -1.40979873
N        1.79838925       2.93269168      -2.18172016
O        1.57932736       0.60764513      -1.63940628
C        2.29057651      -0.44323566       0.44133854
O        2.09889629      -1.24906068       1.31944500
H        0.00212534      -0.95215053       1.65412077
H       -0.89887729       0.18941869      -0.75552950
H       -0.08880355      -1.38010369      -0.60801751
H        1.95714519       2.20206339       0.74551863
H        0.22269182       2.25119254       0.34209945
H        2.03099431       2.61347980      -3.12335010
H        3.31347796      -0.20092162       0.08223209
