23
Properties=species:S:1:pos:R:3 104197=T pbc="F F F"
C        0.01681922      -1.55525919       0.30048269
C        0.01665633      -0.06704506      -0.07266076
C        1.41542800       0.54808596      -0.14810080
C        2.28492657      -0.10126355      -1.22282928
O        2.07978584       0.47430789       1.15210251
C        2.45586771       1.86094592       1.10571034
C        1.53969447       2.11551793      -0.11628500
C        0.28292491       2.91676501       0.19925801
O        2.16755003       2.61649851      -1.28056984
H       -1.00580985      -1.90764501       0.46564797
H        0.58476483      -1.71568468       1.22128002
H        0.45646026      -2.17849095      -0.48325516
H       -0.56787644       0.47542323       0.67585406
H       -0.48561188       0.08151837      -1.03726134
H        2.42499874      -1.16107440      -0.99593871
H        3.26550914       0.37366959      -1.27337651
H        1.81883774      -0.01090987      -2.20870560
H        3.52055976       2.00103549       0.87690650
H        2.20953148       2.38633702       2.03669347
H       -0.20358842       2.57411015       1.11529236
H       -0.43720779       2.86331089      -0.62269497
H        0.54972108       3.97088387       0.35238075
H        2.11190870       3.57715491      -1.26544931
