21
Properties=species:S:1:pos:R:3 104189=T pbc="F F F"
C        0.38285632      -2.06762028       0.61061803
C        0.29183131      -0.54690781       0.70915369
C        1.61677889       0.05755426       1.15521425
O       -0.78626098      -0.15323618       1.61101508
C       -1.65893725       0.17681010       0.51285216
C       -0.47946352       0.10043240      -0.48658668
O       -0.62537071      -0.74331484      -1.60023132
C        0.02178328       1.46418424      -0.94875540
O       -0.89622996       1.88938322      -1.95646621
H       -0.57133215      -2.50329634       0.30976706
H        0.66487110      -2.47558149       1.58623755
H        1.13392595      -2.36604908      -0.12659902
H        1.90597079      -0.37397493       2.11879963
H        1.54881771       1.14012016       1.28487745
H        2.41170471      -0.16557089       0.43598943
H       -2.14754221       1.14782963       0.64841703
H       -2.41704311      -0.59526111       0.33032002
H       -0.95273316      -0.18079819      -2.31493769
H        1.03639270       1.36503450      -1.35987675
H        0.04896294       2.17537466      -0.11316739
H       -0.52898265       2.65488799      -2.40664092
