19
Properties=species:S:1:pos:R:3 105351=T pbc="F F F"
C       -1.59471292      -0.65325970      -1.45020815
C       -1.06375614      -0.90123439      -0.03371273
C        0.36755336      -0.40688812       0.15978855
O        0.80551597      -0.44260693       1.55956107
C        1.23512726       0.92316202       1.46115436
C        0.07801736       1.83500792       1.21390335
C        0.70417941       1.08177425       0.05738277
C        1.34261216      -1.28178157      -0.61390718
O        1.87228664      -0.97385296      -1.64970274
H       -2.61227799      -1.04017188      -1.55201256
H       -0.97254527      -1.13835675      -2.20839513
H       -1.61771361       0.41717517      -1.67722190
H       -1.09926314      -1.97139822       0.20911156
H       -1.69650505      -0.40146354       0.70675760
H        2.17630489       1.18992899       1.92596945
H        0.31028570       2.89561305       1.22627048
H       -0.90477619       1.57818105       1.59690808
H        1.13918271       1.55124610      -0.81265763
H        1.53048485      -2.26107448      -0.11898925
