16
Properties=species:S:1:pos:R:3 108300=T pbc="F F F"
O       -1.37163855      -2.21472464      -0.23451953
C       -1.49306469      -0.80825764      -0.35035812
C       -0.14830889      -0.14693539      -0.23128964
C        0.93816409      -0.25159898      -1.30962849
O        1.26315479       1.15696469      -1.16226045
C        0.23059738       1.35092634      -0.17563651
C        0.70880681       1.02730037       1.22949658
N        1.18760571       1.68112973       2.18131680
O        0.42215771      -0.33185907       1.11110393
H       -0.99798522      -2.39515521       0.63588704
H       -2.17552446      -0.39006974       0.40474992
H       -1.91991656      -0.60911675      -1.33835147
H        0.56268250      -0.46620225      -2.31643997
H        1.77762452      -0.91024226      -1.06975868
H       -0.39691852       2.22398646      -0.35362600
H        1.41256337       1.08385432       2.97931458
