18
Properties=species:S:1:pos:R:3 108454=T pbc="F F F"
O       -1.66016064      -2.14827438      -0.18427708
C       -1.69140748      -0.73295816      -0.19653820
C       -0.27658416      -0.19535892      -0.05660773
C        0.69485965      -0.29459352      -1.25982246
C        0.97970065       1.21487413      -1.04639078
N        0.00385666       1.29979527       0.09406376
C        0.65864927       1.07790982       1.42258735
C        0.33478251      -0.42259465       1.32641256
O        0.37797002      -1.36792724       2.06392641
H       -1.24829041      -2.41688351       0.64735513
H       -2.32816675      -0.32131324       0.60241792
H       -2.12655853      -0.42806398      -1.15417720
H        0.18390050      -0.53940359      -2.19310020
H        1.53972433      -0.97523414      -1.14107333
H        0.68391117       1.86220919      -1.87583264
H        2.00697249       1.46805810      -0.76356217
H        0.14338074       1.58607453       2.24501146
H        1.72345996       1.33368428       1.46960721
