21
Properties=species:S:1:pos:R:3 111251=T pbc="F F F"
O       -1.38953459      -0.97764940      -2.27040076
C       -0.90524961      -1.29152822      -0.96907814
C        0.49505429      -0.72393667      -0.87138265
C        1.27851263      -0.64890428       0.45799651
C        0.38835057      -0.28132297       1.65048106
C       -0.20288564       1.14107371       1.44133713
C       -0.28009935       1.56982952      -0.05060849
C        0.76306631       0.79816198      -0.86176581
O        1.93570046       0.56154613      -0.02042761
H       -2.28338686      -1.32338275      -2.35048007
H       -0.87190879      -2.38155065      -0.80648499
H       -1.56268678      -0.86989669      -0.19561508
H        1.12144343      -1.18863830      -1.63761335
H        1.99407503      -1.44490709       0.68361156
H        0.98029545      -0.29702353       2.57129503
H       -0.39448695      -1.03904908       1.77474512
H        0.45405333       1.84752945       1.95308809
H       -1.18216097       1.22753205       1.92150837
H       -0.09281440       2.64548038      -0.12889939
H       -1.27058705       1.39535108      -0.48565730
H        1.02524948       1.28128532      -1.80564924
