19
Properties=species:S:1:pos:R:3 111623=T pbc="F F F"
O       -1.47278139      -1.13344713      -1.90668493
C       -0.70555094      -1.59933073      -0.81459729
C        0.66480727      -0.93871818      -0.68326530
C        1.19781308      -0.28256563       0.56933526
C        0.24193104       0.22907022       1.65841365
C       -0.54715132       1.37639473       1.03773970
O       -1.40735687       1.02462717      -0.06111981
C       -0.10382002       1.56516222      -0.35322192
C        0.96287819       0.55273873      -0.68377276
H       -1.80815299      -0.27346218      -1.62761683
H       -0.54261269      -2.66810898      -0.99298468
H       -1.26590565      -1.51277056       0.12334241
H        1.43706044      -1.48142436      -1.22404122
H        2.20198116      -0.54237145       0.88724650
H        0.82620915       0.62587799       2.49601992
H       -0.41682138      -0.54415091       2.06856109
H       -0.93440605       2.17565959       1.66538384
H       -0.11242060       2.52611278      -0.85928131
H        1.78429958       0.90070668      -1.29945629
