22
Properties=species:S:1:pos:R:3 113228=T pbc="F F F"
C       -1.41217544       0.56829724      -1.16701645
O       -1.66603873       1.79811166      -0.51650008
C       -1.51491541       1.71861247       0.86530947
C       -1.34730779       3.01075687       1.60063482
C       -0.18064520       2.03882474       1.51897164
C        0.99026907       2.42994455       0.63686421
N        0.02579299       1.30152248       2.74758264
C        1.20368046       1.54603257       3.56970671
C        1.03875790       0.25875892       2.83307803
H       -2.09348562      -0.22066148      -0.81446029
H       -0.37896753       0.22711852      -1.01045624
H       -1.57830281       0.72807748      -2.23499881
H       -2.10154098       0.93462819       1.34474584
H       -1.84600878       3.12142282       2.55581943
H       -1.28609250       3.90806357       0.99455353
H        0.61476589       2.82592039      -0.30907451
H        1.63432900       1.57596821       0.40060072
H        1.61019357       3.20338454       1.10293010
H        1.02747899       1.59927440       4.64084174
H        1.96891734       2.22607061       3.20259144
H        1.69935828       0.08700728       1.98632808
H        0.73506529      -0.64394258       3.35661796
