21
Properties=species:S:1:pos:R:3 114768=T pbc="F F F"
O       -0.06814790      -1.39337716      -0.11083628
C       -0.04264753       0.02625855      -0.06230270
C        1.41518292       0.47777318       0.02394879
C        1.49719815       2.00143950       0.25137317
C        2.91402981       2.55570715       0.10285505
C        3.31011730       3.28514860      -1.15971828
C        3.82525664       1.88347348      -0.89549712
C        3.27669342       0.71485871      -1.62710628
C        2.19162973       0.06384598      -1.20638427
H       -0.97509453      -1.67405732      -0.26196730
H       -0.59655563       0.40266378       0.81302512
H       -0.50823444       0.46326109      -0.96106238
H        1.84515848      -0.03725836       0.89645831
H        1.10527835       2.24772479       1.24456346
H        0.83153133       2.49171454      -0.47046000
H        3.37629936       2.90269985       1.02132060
H        4.01149797       4.10976478      -1.08622737
H        2.55089881       3.40403095      -1.92644343
H        4.88004158       1.81601059      -0.63981059
H        3.80467955       0.38371979      -2.51875981
H        1.82631401      -0.81018463      -1.73696509
