25
Properties=species:S:1:pos:R:3 115592=T pbc="F F F"
C       -1.13489837      -3.02263874      -0.01411921
C       -1.24892429      -1.49762330      -0.12430752
C        0.10702627      -0.80483658      -0.08546311
C        0.93715619      -0.77961384       1.22839866
C        1.41937105       0.64816494       0.85865184
C        0.22744898       0.74782195      -0.14698470
C       -0.97120227       1.50780733       0.41981651
O        0.54257214       1.16018523      -1.46636418
C        0.98442855       2.49181495      -1.60693072
H       -2.11992397      -3.49883835      -0.04319388
H       -0.65042204      -3.31803667       0.92292601
H       -0.54023591      -3.43434140      -0.83710188
H       -1.88387481      -1.12371017       0.68876472
H       -1.76028971      -1.23665742      -1.05995138
H        0.73564901      -1.18822609      -0.89735896
H        1.70229621      -1.54778292       1.35662374
H        0.29704348      -0.78106300       2.11679582
H        2.37186222       0.62643578       0.32237649
H        1.47478949       1.39064201       1.65902275
H       -1.25258508       1.11693234       1.40194354
H       -1.83563943       1.42145560      -0.24551797
H       -0.74050637       2.56973345       0.54967866
H        1.33610020       2.60239544      -2.63610421
H        1.81761081       2.72320513      -0.92652583
H        0.18514766       3.22677433      -1.43507520
