18
Properties=species:S:1:pos:R:3 115542=T pbc="F F F"
C       -0.21559667      -1.52589788      -0.16405903
C       -0.00039285      -0.01196579      -0.06072911
C       -0.52915244       0.53055674       1.25225768
O       -1.96081785       0.37792610       1.40281997
C       -2.14673288       1.76977730       1.69211439
C       -0.64817758       2.07977389       1.41569804
O       -0.37133360       2.75556356       0.21342515
C        0.09652768       2.66667543       2.53433156
N        0.67301778       3.15616399       3.40865017
H       -1.27770502      -1.77064342      -0.07579595
H        0.32083661      -2.06021302       0.62760789
H        0.14301991      -1.90308920      -1.12577783
H       -0.49867117       0.50444933      -0.88543199
H        1.06680433       0.23160781      -0.12843431
H       -0.00607051       0.06969234       2.10094709
H       -2.47897300       1.94570850       2.72178267
H       -2.82462451       2.26171404       0.98548945
H       -0.50495772       3.70066351       0.34881388
