16
Properties=species:S:1:pos:R:3 116661=T pbc="F F F"
C       -0.51616992      -1.04919999       0.53555670
O        0.11898887      -0.32502031      -0.51554973
C       -0.59728301       0.67634120      -1.04525104
N       -0.11965629       1.34891065      -2.00126089
C       -0.88342081       2.45812194      -2.55301132
C       -0.02613119       3.73105310      -2.35062878
O        0.26725940       4.49225383      -3.22702848
C       -2.20892278       2.72135058      -1.98409581
C       -3.27532234       2.96735929      -1.48401257
H       -0.76395171      -0.39405489       1.37871752
H        0.20181884      -1.80077852       0.86432630
H       -1.42541087      -1.54899677       0.18230927
H       -1.58453514       0.83613893      -0.59385281
H       -0.96770414       2.31791847      -3.63650811
H        0.29833343       3.86676938      -1.29648463
H       -4.22813652       3.18843959      -1.06885786
