19
Properties=species:S:1:pos:R:3 117868=T pbc="F F F"
C        0.02826704      -1.38285122      -0.02157667
O        0.00337726       0.02508759       0.00649660
C       -0.64183738       0.54117079       1.14700080
C       -0.57928810       2.07783083       1.07199454
C        0.87607913       2.58833652       1.07619023
C       -1.36035401       2.66265294       2.15487124
C       -2.00286952       3.14121311       3.06262456
C       -2.72122375       3.68083598       4.08477920
C       -3.35986300       4.15890951       4.99146343
H       -0.98736550      -1.80847558      -0.02876546
H        0.56830949      -1.79855142       0.84345260
H        0.54341153      -1.68179614      -0.93744848
H       -0.14963977       0.19248079       2.07044346
H       -1.69150301       0.20969817       1.18638373
H       -1.04228970       2.36302440       0.11710707
H        0.90654627       3.67301391       0.94869118
H        1.42881257       2.11559922       0.26216729
H        1.36601890       2.34221320       2.02324481
H       -3.91919045       4.58044976       5.78916412
