21
Properties=species:S:1:pos:R:3 117886=T pbc="F F F"
C        0.43328707      -1.48190079      -0.60563577
C        0.65197402      -0.45303768       0.51846242
C        1.73503751       0.48365775       0.23888794
C        2.64395323       1.23926841       0.00371133
C        3.70606220       2.18860381      -0.32512281
O        3.18940004       3.45306252      -0.73873941
C        4.65664237       1.64643147      -1.40487440
O        5.31814839       0.51485676      -0.89818356
C        6.20287989      -0.06626045      -1.82527030
H       -0.38378194      -2.16184594      -0.34676098
H        1.33730027      -2.07430659      -0.76977777
H        0.18159571      -0.98341562      -1.54579910
H        0.86458173      -0.97655561       1.45940008
H       -0.27606192       0.10720299       0.69097770
H        4.30733751       2.39084759       0.56932707
H        2.41858271       3.27889948      -1.28915966
H        5.36792000       2.44674414      -1.66440213
H        4.08050521       1.39928080      -2.31316520
H        6.99497947       0.63578577      -2.13087558
H        5.67833660      -0.40597884      -2.73246598
H        6.66447903      -0.92961578      -1.34000464
