25
Properties=species:S:1:pos:R:3 118092=T pbc="F F F"
C       -0.07683165      -1.49203506      -0.24292947
C        0.01147887       0.02275605      -0.04267934
C       -0.76364397       0.51540742       1.18426943
C       -0.61775024       2.02450844       1.42610054
O        0.74663043       2.38520373       1.65132983
C       -1.53404194       2.55914389       2.52425314
C       -1.33105156       1.98224057       3.91327322
C       -2.93629185       2.93882866       2.10867497
C       -1.92139729       4.01284814       2.42050961
H       -1.11556455      -1.81832041      -0.36852411
H        0.33432325      -2.03127949       0.61817003
H        0.48062487      -1.81006688      -1.12960737
H       -0.37095029       0.53416717      -0.93611399
H        1.05832308       0.32968261       0.05612445
H       -0.41770146      -0.02840302       2.07570972
H       -1.82950576       0.27541158       1.07752490
H       -0.87823755       2.54688032       0.49636786
H        1.06220591       1.88176572       2.40942557
H       -1.53156980       0.90584048       3.94673331
H       -1.99997627       2.46249026       4.63359611
H       -0.30672090       2.14782826       4.26919895
H       -3.74243848       2.77075854       2.81527712
H       -3.22275665       2.79360051       1.07168408
H       -1.51478202       4.59025868       1.59717078
H       -2.04058132       4.57703803       3.33962549
