21
Properties=species:S:1:pos:R:3 118824=T pbc="F F F"
C        0.16354225      -1.37899636       0.01364911
O        0.22523610       0.02102026       0.15068617
C       -0.78589498       0.53481635       0.99337874
C       -0.67177783       2.04552144       0.99406700
C       -0.84527763       2.67554537      -0.37596068
C        0.25966353       2.69018855       1.96509986
C       -1.24409790       2.84270423       2.17620258
C       -1.88178045       2.20772349       3.35065130
O       -2.86438255       2.63991564       3.90333623
H       -0.79384731      -1.70547500      -0.42235632
H        0.29033324      -1.89055386       0.98104874
H        0.97604739      -1.67813596      -0.65258518
H       -0.67648542       0.12050957       2.00746866
H       -1.78107481       0.23094431       0.62409935
H       -0.10744056       2.26725460      -1.07125752
H       -0.71784056       3.76085264      -0.33172564
H       -1.84293707       2.46859470      -0.77921882
H        0.80797570       3.57611225       1.66515727
H        0.78863135       2.05096806       2.66548765
H       -1.69460164       3.79513876       1.91635971
H       -1.37684691       1.28879232       3.72761190
