20
Properties=species:S:1:pos:R:3 118789=T pbc="F F F"
C       -0.12582666      -1.78977272      -0.07295571
C        0.25905082      -0.32522403      -0.08152819
C        1.69911400      -0.01996147       0.31726427
C        1.93555448      -0.00368385       1.82752580
O        1.35037402       1.18974169       2.34268349
N       -0.79735974       0.59403132       0.35904397
C       -0.39261306       0.60851405      -1.06675757
C       -1.35246895       0.17604314      -2.04527593
C       -2.12763175      -0.18126691      -2.89273619
H       -1.17676107      -1.90939533      -0.33995808
H        0.02321454      -2.22642997       0.92096509
H        0.48203359      -2.35714849      -0.78635149
H        2.00315182       0.96083150      -0.06673505
H        2.36670160      -0.76081156      -0.13811555
H        3.01702917      -0.02286099       2.03154632
H        1.49466608      -0.89462317       2.29745202
H        1.29082469       1.11673674       3.29933740
H       -0.37835529       1.38005378       0.85047281
H        0.22644084       1.44136561      -1.39611371
H       -2.82211926      -0.49462826      -3.63204324
