18
Properties=species:S:1:pos:R:3 118941=T pbc="F F F"
C       -0.29951172      -0.73352977       0.39925288
O        0.40522900      -0.19256009      -0.71628030
C        1.53871730       0.58308763      -0.38113375
C        1.14211692       2.03970402      -0.10203621
O        0.24648479       2.48661170      -1.07874237
C        2.32842731       3.02387582       0.13336063
N        1.85508667       3.16985650       1.51222541
C        0.74118264       2.38385530       1.38207277
O       -0.15819463       2.10370347       2.13221033
H       -1.12278677      -1.32187498      -0.01194220
H       -0.69253273       0.04885977       1.05762242
H        0.35438143      -1.39699073       0.98288540
H        2.18626388       0.56688972      -1.26551666
H        2.09149128       0.15129792       0.46543517
H       -0.27147648       1.70780027      -1.33023370
H        2.24251925       3.92695496      -0.47668771
H        3.33366235       2.59801713       0.04304630
H        2.16906757       3.75947447       2.26827822
