19
Properties=species:S:1:pos:R:3 120920=T pbc="F F F"
C       -0.48937358      -1.33700076      -0.08951389
O       -0.53070219       0.06166575       0.06767645
C        0.12137856       0.50152655       1.23899723
C       -0.06477768       2.00915581       1.29982305
O        0.75454095       2.66359090       2.31993336
C       -0.38258541       3.43296961       2.75196561
C       -1.35863711       2.50946585       3.38293538
O       -0.94498797       1.38950696       4.10224993
C       -1.33618358       2.63180026       1.86513870
H       -0.98125481      -1.85621833       0.74762413
H        0.54516151      -1.70819553      -0.16305359
H       -1.01761949      -1.57758130      -1.01524453
H        1.20181911       0.27568994       1.20053360
H       -0.29955743       0.01848808       2.13078034
H        0.18419622       2.43222834       0.31922379
H       -0.22989721       4.49006832       2.93837834
H       -2.22795105       2.98247615       3.83196306
H        0.01790860       1.36386993       4.01778886
H       -2.19327309       2.94477601       1.28476000
