25
Properties=species:S:1:pos:R:3 121918=T pbc="F F F"
C       -2.04439617      -2.74252016      -1.38115210
C       -1.81526626      -2.04432959      -0.05157060
O       -0.62970757      -1.27990280      -0.14041070
C       -0.31354434      -0.59214135       1.04793844
C        1.00663522       0.16148568       0.85856471
O        1.38573856       0.76568922       2.09208023
C        1.00463965       1.15336776      -0.32404981
C        2.43003388       1.64917891      -0.60015553
C        0.04625600       2.33516622      -0.11108534
H       -2.95601672      -3.34624452      -1.34269746
H       -1.20256503      -3.39880443      -1.61931549
H       -2.14634192      -2.01020798      -2.18713033
H       -1.72926691      -2.78191587       0.76417261
H       -2.66983619      -1.39159488       0.19615703
H       -0.19950797      -1.29063303       1.89216616
H       -1.12349683       0.10988162       1.31844317
H        1.78371709      -0.58737493       0.66558665
H        0.72345862       1.42973808       2.31149652
H        0.65198874       0.58311872      -1.19109851
H        2.83902244       2.15397234       0.28080226
H        2.44841568       2.35353942      -1.43800642
H        3.09779298       0.81694290      -0.84674838
H        0.34799193       2.94973876       0.74629103
H       -0.98744818       2.01151515       0.04574900
H        0.05170329       2.99233475      -0.98602718
