19
Properties=species:S:1:pos:R:3 122727=T pbc="F F F"
C        0.13087389      -1.54540454      -0.01221501
C        0.02316287      -0.03026715      -0.00287020
O        1.32926743       0.51399888      -0.01214695
C        1.34877902       1.92019386      -0.00471049
C        2.82077199       2.35536766      -0.01625415
C        2.97634574       3.79986694      -0.00982569
C        3.08663834       5.00506141      -0.00441983
C        3.21181596       6.36008791       0.00163516
C        3.32273745       7.56260369       0.00705491
H       -0.86524912      -1.99763629      -0.00532023
H        0.67824246      -1.89666639       0.86700910
H        0.66155513      -1.88692461      -0.90539649
H       -0.52398869       0.31467460       0.89059732
H       -0.54063702       0.32442746      -0.88205391
H        0.84519200       2.32059827       0.88980340
H        0.82841542       2.33022137      -0.88515247
H        3.30434488       1.92538650      -0.90201623
H        3.32097083       1.91579783       0.85545628
H        3.42049917       8.61961830       0.01182721
