20
Properties=species:S:1:pos:R:3 122244=T pbc="F F F"
C        0.00782349      -1.50656011      -0.25294474
C        0.00429401      -0.01219418       0.05260713
N        1.34252556       0.55137863      -0.08974720
C        1.42039769       1.97496634       0.17050132
C        2.85036006       2.47423133       0.05111937
C        3.09926713       3.89015116      -0.35272375
N        3.40057078       2.80226203      -1.28616916
C        3.79922671       1.83772092       0.94534896
N        4.54704265       1.36422662       1.68817179
H       -0.98887127      -1.93326648      -0.10884869
H        0.71236838      -2.03013636       0.39881734
H        0.30225517      -1.69609645      -1.29173288
H       -0.31664189       0.15369783       1.08918805
H       -0.74113364       0.49819190      -0.58713344
H        1.71082207       0.34140459      -1.01261323
H        1.05885404       2.15519388       1.19094318
H        0.79018355       2.59476370      -0.49944632
H        3.96722983       4.40919267       0.04017748
H        2.22481176       4.51234577      -0.52437272
H        2.65688767       2.71825891      -1.97672684
