14
Properties=species:S:1:pos:R:3 123394=T pbc="F F F"
C        0.00465762       1.15078772       0.00482728
C       -0.02418840      -0.04924982      -0.00241917
C       -0.01448138      -1.50221462      -0.01170634
O       -1.37003985      -1.97610623       0.00090135
C       -1.50549289      -3.30918560      -0.00589176
N       -0.49128395      -4.16988615      -0.02298690
N       -1.11839101      -5.35124864      -0.02315171
N       -2.43937969      -5.32023584      -0.00771860
C       -2.72325036      -4.01929897       0.00371058
H        0.02532627       2.21266629       0.01129641
H        0.51943699      -1.89747483       0.86163432
H        0.49913936      -1.88633523      -0.90202602
H       -0.60632833      -6.21707275      -0.03449764
H       -3.73601197      -3.65402603       0.01768948
