20
Properties=species:S:1:pos:R:3 123244=T pbc="F F F"
O        0.02812318      -1.24356583       0.45912300
C        0.02574474       0.16372797       0.59629220
C        1.41389531       0.74559519       0.38590685
O        2.25208153       0.17735042       1.38094751
C        3.61590699       0.51335898       1.24507227
C        4.36154591       0.01140950       2.46924665
O        4.04172166       0.76562689       3.63105124
C        2.95815404       0.37967451       4.33908997
N        2.54548821       1.09765600       5.29050186
H        0.74490946      -1.56028349       1.02056540
H       -0.34547064       0.47371557       1.58601383
H       -0.65853571       0.56227533      -0.15946758
H        1.39892931       1.84338864       0.47171257
H        1.78449630       0.47951426      -0.61633900
H        3.74143996       1.60386055       1.16599673
H        4.04501720       0.05470034       0.33852365
H        5.43796354       0.12766188       2.31737161
H        4.14640775      -1.05419208       2.62504283
H        2.53731320      -0.57684527       4.00612675
H        1.74782325       0.65102830       5.73806445
