14
Properties=species:S:1:pos:R:3 124917=T pbc="F F F"
C       -0.07103551      -1.48069476      -0.00265885
C        0.04626695      -0.00291866       0.06201298
C        1.12890995       0.83678189       0.00243904
C        2.49255968       0.51280729      -0.14298444
C        3.65762201       0.23556898      -0.26720208
C        0.52558901       2.13150676       0.12555944
O        1.19881647       3.28648892       0.12079645
N       -0.77497948       2.07672767       0.24584871
O       -1.08086069       0.70609298       0.20485364
H       -0.69670505      -1.78521052      -0.84797587
H       -0.53099924      -1.87542717       0.90912730
H        0.92041267      -1.92156920      -0.11891839
H        4.68693182      -0.00111000      -0.37649818
H        0.55695885       4.00315312       0.21815375
