14
Properties=species:S:1:pos:R:3 125102=T pbc="F F F"
C        0.19484016      -1.74728389      -0.70586713
C       -0.03645810      -0.28399139      -0.88615757
C       -0.40817208       0.67569859       0.02580745
N       -0.49362981       1.82749763      -0.68244964
N       -0.20006405       1.60891948      -1.97726632
N        0.08221522       0.34352473      -2.09625800
O       -0.71883537       0.64578899       1.35093971
C        0.28007997       0.28431699       2.22851674
O        0.07320165       0.17895131       3.39148084
H       -0.29255112      -2.30579471      -1.50928599
H       -0.21038220      -2.09554425       0.24822807
H        1.26102113      -1.99570652      -0.73455621
H       -0.77172460       2.74293755      -0.36429794
H        1.24045919       0.12068549       1.71116600
