19
Properties=species:S:1:pos:R:3 126908=T pbc="F F F"
C       -1.26553604      -2.69133092       0.06080631
C       -1.12739517      -1.19792105       0.33893141
N       -0.13810671      -0.59062007      -0.56111915
C        0.09734134       0.79668909      -0.36689186
C        1.32559643       1.31189611       0.02087592
N        2.54194777       0.65722596       0.19760178
N        1.16328397       2.65132989       0.12148455
N       -0.10303679       3.06027567      -0.17367108
C       -0.74089902       1.93687619      -0.47216044
H       -1.98067975      -3.15043824       0.74971022
H       -0.30111332      -3.19655267       0.16901403
H       -1.62649763      -2.87146315      -0.95878525
H       -0.77993730      -1.03508845       1.36554417
H       -2.11601820      -0.71345795       0.26624580
H       -0.39384888      -0.78779708      -1.52396595
H        2.38456387      -0.34091590       0.09802586
H        2.98039294       0.84391299       1.09233998
H        1.86564713       3.34128086       0.32414739
H       -1.78570465       1.97609873      -0.74813369
