17
Properties=species:S:1:pos:R:3 126807=T pbc="F F F"
C        1.29927460      -1.67515898      -0.87604595
C        1.14264952      -0.15432963      -0.90588516
N        0.46061848       0.35784341       0.27378053
N        1.13857311       0.51607718       1.41933616
C        0.23564523       0.93468256       2.30763781
C       -1.04104105       1.04507587       1.73857127
C       -0.86881178       0.66039563       0.41347751
C       -1.79211457       0.56794833      -0.64845688
C       -2.58021571       0.48636737      -1.55616280
H        0.32275421      -2.16768640      -0.86626312
H        1.85408197      -1.98194516       0.01413434
H        1.84628816      -2.01241908      -1.76166171
H        0.56483055       0.16248439      -1.77723967
H        2.11921708       0.33429327      -0.94338920
H        0.54152022       1.14661840       3.32141001
H       -1.96255145       1.36127683       2.19814861
H       -3.28071856       0.41847601      -2.35139174
