16
Properties=species:S:1:pos:R:3 126053=T pbc="F F F"
C        0.75172475      -1.07609178       1.63060294
C        0.88077367       0.38697871       1.29406012
N       -0.32335003       1.21012929       1.40545920
C        0.26757728       1.01660013       0.07340232
C       -0.50278084       0.26951580      -0.94006939
N       -1.52132898      -0.51412626      -0.68598695
O       -1.88454994      -0.99647971      -1.95232658
C       -1.04150893      -0.43792907      -2.81796851
N       -0.16612556       0.34834874      -2.28140975
H       -0.19734272      -1.47569786       1.26818339
H        0.79128364      -1.21674206       2.71586309
H        1.57200933      -1.64861676       1.18470311
H        1.82251856       0.84550613       1.59592304
H       -0.10840789       2.14295179       1.74630183
H        0.82811849       1.83229710      -0.37522045
H       -1.16861085      -0.68664419      -3.86151739
