20
Properties=species:S:1:pos:R:3 126162=T pbc="F F F"
C        0.81415999      -2.47449875      -0.88961218
C        0.68543032      -0.94980866      -0.83632077
C       -0.09793467      -0.43787961       0.38536412
C       -1.57112814      -0.85237044       0.39929570
N        0.01166312       1.02329739       0.46336628
N       -0.55350709       1.82639852      -0.42912385
C       -0.19226855       3.04845466      -0.02816736
C        0.59963664       2.92385263       1.11856345
N        0.71830824       1.62579432       1.41295175
H       -0.15487349      -2.96635154      -1.01635743
H        1.27259756      -2.86788649       0.02473865
H        1.44541044      -2.77487164      -1.73096620
H        0.20074646      -0.57438387      -1.74440204
H        1.68450750      -0.50048199      -0.80523149
H        0.39381348      -0.78332389       1.29880358
H       -1.65887524      -1.94116659       0.42430571
H       -2.08295390      -0.47831935      -0.49101747
H       -2.07562110      -0.44995318       1.28186419
H       -0.51148833       3.92659992      -0.56640383
H        1.07237677       3.67689858       1.72834919
