14
Properties=species:S:1:pos:R:3 127348=T pbc="F F F"
C        0.05664033      -2.58256092      -0.01743513
N       -0.00319742      -1.14408228       0.12921253
C        0.11054472      -0.38928289       1.23382250
N       -0.02247668       0.89491768       0.93732466
C       -0.21245862       0.84988832      -0.40301779
O       -0.42867896       1.93787333      -1.18084620
C       -0.02802666       3.16655344      -0.71596437
O       -0.25682708       4.15471772      -1.33722408
N       -0.21139727      -0.34945587      -0.95484872
H       -0.88736117      -2.95754473      -0.41974484
H        0.23722495      -3.02596118       0.96320647
H        0.86747672      -2.85542444      -0.69678652
H        0.27913142      -0.80183489       2.21719527
H        0.49940572       3.10219669       0.24510623
