15
Properties=species:S:1:pos:R:3 127998=T pbc="F F F"
C       -0.00974618      -1.38199422       0.16347179
N        0.02062753       0.07127432       0.23441336
C        1.08594509       0.67199425      -0.10486472
O        2.19981074       0.02696482      -0.53039648
N        3.37571024       0.73423236      -0.90485453
C        3.28468254       2.01656423      -0.80217389
N        2.24023869       2.80245263      -0.39147330
C        1.16529393       2.14885069      -0.05033923
N        0.05902878       2.76637737       0.37273841
H       -0.99393221      -1.73486767       0.47772695
H        0.75089842      -1.83336120       0.81343332
H        0.18615701      -1.74136367      -0.85491817
H        4.19438873       2.53497562      -1.09311363
H        0.03673431       3.76972173       0.43582267
H       -0.73275738       2.19241120       0.61801860
