15
Properties=species:S:1:pos:R:3 128033=T pbc="F F F"
C        0.23265248      -1.61814979      -0.07243512
N       -0.01127590      -0.19119174      -0.04148060
C        0.98455431       0.57097537       0.12968099
N        0.89829800       1.94802217       0.17999506
C       -0.24475553       2.70632476       0.05707946
N       -0.19139798       4.01455516       0.12428641
O       -1.48775624       4.43538352      -0.03545061
N       -2.33640004       3.38348543      -0.20065626
C       -1.60121065       2.30901030      -0.14830586
H       -0.34968707      -2.11027723       0.71495046
H        1.29244389      -1.88893736       0.06095677
H       -0.11015847      -2.03158617      -1.02786787
H        2.01777374       0.22129833       0.25574178
H        1.74993427       2.46746886       0.32058552
H       -2.00057218       1.31595204      -0.24870342
