16
Properties=species:S:1:pos:R:3 128383=T pbc="F F F"
C       -0.63704976      -2.44241149      -0.00580775
N       -0.61184874      -1.00357678      -0.21369145
C        0.58319786      -0.34353238      -0.20748330
N        1.76390105      -0.91383017      -0.22884509
O        2.66923454       0.13959329      -0.26342356
N        2.03300822       1.34127657      -0.23836101
C        0.75794795       1.08328077      -0.21600423
C       -0.31837546       2.12131450      -0.19100003
O       -1.31081496       1.81254589       0.78816770
H       -1.66699922      -2.79319472      -0.09518334
H       -0.23861156      -2.73964750       0.97427615
H       -0.03262163      -2.93188213      -0.77381329
H       -1.35955034      -0.46527205       0.20108141
H       -0.85393746       2.13260288      -1.14617294
H        0.12261200       3.11357016      -0.04029007
H       -0.90009248       1.88916316       1.65655080
