16
Properties=species:S:1:pos:R:3 128581=T pbc="F F F"
C        0.09058417      -1.39966890      -0.00977762
O        0.01734452       0.03171307      -0.00418019
C        1.16260095       0.69901851      -0.01156730
C        1.38941865       2.04186194      -0.00976044
C        2.80875126       2.10140607      -0.02085643
O        3.50141809       3.24225314      -0.02328385
C        4.92487496       3.10774891      -0.03502265
N        3.39179745       0.91997002      -0.02863826
O        2.30735375       0.00465804      -0.02250129
H       -0.94368487      -1.74241486      -0.00250909
H        0.61634559      -1.76636868       0.87619315
H        0.60175049      -1.76012179      -0.90678893
H        0.67797440       2.84695172      -0.00200446
H        5.31882930       4.12439248      -0.03546842
H        5.25609368       2.56954074      -0.92833199
H        5.27031538       2.56481708       0.85000475
