14
Properties=species:S:1:pos:R:3 130353=T pbc="F F F"
N       -1.22137187      -2.75508560      -0.08443257
C       -1.19169834      -1.40421923       0.00604515
N       -0.08192488      -0.75234521      -0.00891237
C       -0.09024615       0.60850415       0.02532614
C        0.96918136       1.48128212       0.06659185
N        2.33080980       1.22343964       0.16335761
N        0.45338586       2.74504778       0.07270346
N       -0.81528290       2.71510182       0.03960147
O       -1.21803646       1.35469250       0.01528826
H       -2.06694200      -3.25410752       0.12694807
H       -0.34991140      -3.25754794      -0.02225936
H       -2.17407504      -0.92940976       0.06349069
H        2.56471902       0.29625393      -0.16647512
H        2.89139299       1.92839332      -0.29727328
