15
Properties=species:S:1:pos:R:3 130208=T pbc="F F F"
N       -0.07966688      -1.38237856      -0.07585554
C       -0.03384981       0.02386173      -0.01058159
N        1.09728751       0.72003800      -0.00895718
N        0.69392590       2.00862484      -0.00591577
C       -0.65473273       2.15824907       0.00795239
C       -1.16556053       0.87551966      -0.00837851
N       -2.48984619       0.42997083      -0.05473447
C       -3.58948225       1.23097470       0.00553417
O       -3.56517361       2.43477320       0.15912906
H       -0.37783128      -1.79038898       0.80561811
H        0.84369292      -1.74608829      -0.28648885
H        1.38813523       2.73463163      -0.00241396
H       -1.14900657       3.11274369       0.01868524
H       -2.61584540      -0.55034374      -0.26121783
H       -4.52463614       0.64848403      -0.09747296
