16
Properties=species:S:1:pos:R:3 131375=T pbc="F F F"
O       -0.10317403      -2.83085910       1.19762173
C       -0.09837763      -1.47846602       1.16352910
N       -0.26911137      -0.74771450       2.26385885
N       -0.19026435       0.54797211       1.84360399
C       -0.03071534       0.61971148       0.50123189
C        0.05399728      -0.66178068       0.02668581
N        0.38390006      -0.70956821      -1.34904858
C        0.09204267       0.67456382      -1.82848923
C        0.24240941       1.61360137      -0.58494738
H       -0.23870539      -3.08540221       2.11891211
H       -0.34884070       1.28051090       2.51114256
H       -0.13617055      -1.40409727      -1.87243955
H       -0.93932802       0.75040188      -2.20154548
H        0.76954809       0.94937713      -2.64084028
H        1.26005770       2.02034990      -0.51324892
H       -0.44726784       2.46139941      -0.63602665
