12
Properties=species:S:1:pos:R:3 132480=T pbc="F F F"
F       -0.10036834      -0.07276613      -0.00235969
C        0.05483193      -1.38446145      -0.01131660
N        1.21719994      -1.90123115      -0.02978201
C        1.24013903      -3.28717860      -0.03742922
C        0.12595140      -4.04788813      -0.02639412
F        0.19039677      -5.37124654      -0.03426299
C       -1.21019171      -3.46649563      -0.00529027
N       -2.27932391      -4.15987122       0.00549476
N       -1.12702048      -2.05334167       0.00107521
H        2.21834742      -3.75376634      -0.05311901
H       -3.11886205      -3.58045289       0.01990737
H       -1.98388380      -1.51755653       0.01546196
