15
Properties=species:S:1:pos:R:3 132618=T pbc="F F F"
N        0.23412016      -2.08445692      -0.08725478
C        0.28831046      -0.67539788      -0.02356957
C        1.45954795       0.06694028      -0.06166881
C        1.41006087       1.46204496      -0.03356221
C        0.15367272       2.03518659       0.04963246
F        0.04843164       3.36498871       0.09801084
N       -0.98407037       1.37135150       0.07331961
C       -0.92865811       0.04148808       0.02687939
N       -2.12415335      -0.66335529       0.08174971
H       -0.36653037      -2.47315893       0.63314098
H        1.14935985      -2.51197760      -0.02203691
H        2.41840398      -0.44168904      -0.10566477
H        2.30078476       2.07501461      -0.06234892
H       -2.92721370      -0.06947577      -0.07471572
H       -2.13206648      -1.49750332      -0.49191131
