14
Properties=species:S:1:pos:R:3 133612=T pbc="F F F"
F       -0.02808413      -0.05266268      -0.29654169
C        0.04185523      -1.38032514      -0.11558771
F       -1.20274180      -1.84254671       0.01029941
F        0.68648738      -1.60292269       1.04341103
C        0.78704955      -2.06112167      -1.26055262
C        2.23479738      -1.52015953      -1.42332203
O        2.31228515      -1.18595488      -2.79987434
C        1.00096000      -0.86882142      -3.18113540
O        0.15740773      -1.78160430      -2.49504866
H        0.75113552      -3.13948022      -1.07831438
H        2.99619628      -2.27010342      -1.20451262
H        2.40319365      -0.64049468      -0.78907478
H        0.88980879      -1.02260192      -4.25703613
H        0.74202746       0.16634592      -2.90499091
