14
Properties=species:S:1:pos:R:3 133739=T pbc="F F F"
C       -0.03957989      -1.39772556      -0.10900979
O        0.02429021       0.01870210      -0.01835115
C       -0.64419947       0.57370620       1.09100152
C       -1.25299255       1.84820033       0.71931629
C       -1.76044324       2.89275276       0.41843889
C        0.34525445       0.76980238       2.25986591
F        0.87889650      -0.41001183       2.61666230
F       -0.28332395       1.27208166       3.32891072
F        1.34182519       1.58801203       1.93278141
H       -1.08160053      -1.74711681      -0.13808696
H        0.48076132      -1.88847538       0.72055530
H        0.44902382      -1.66512329      -1.04787329
H       -1.42344413      -0.10660254       1.46783412
H       -2.20611406       3.81914623       0.15024121
